170
MATCHED 3H_P_A2O_HSO3_HHS18_H3O0_poolsmall t=840.0 HSO=3 HHS=18 H3O=0
C     15.820000    23.150002    17.290001
C     16.730001    23.120001    18.270000
C     17.940001    22.630001    17.990002
O     18.830002    22.369999    18.990000
O     18.420002    22.460001    16.710001
H     15.980000    22.850000    16.260000
H     14.790001    23.380001    17.480000
H     16.500000    23.290001    19.310001
H     19.660000    21.990002    18.750002
H     17.970001    22.940002    16.040001
C     17.580002    15.060000    16.900002
C     18.480000    15.390000    18.090002
C     19.300001    14.150001    18.360001
N     18.850000    13.200001    19.260002
O     20.410002    14.030001    17.570002
N     19.350000    16.520000    17.760002
H     16.810001    15.810001    16.760002
H     18.150002    15.020000    15.970001
H     17.110001    14.080001    17.050001
H     17.810001    15.690001    18.890001
H     19.350000    12.340001    19.420002
H     17.980001    13.370000    19.750002
H     20.930002    13.290001    17.850000
H     19.990002    16.610001    18.540001
H     19.910000    16.520000    16.920000
H     18.810001    17.380001    17.800001
O    -16.800001    -9.890000   -16.510000
S    -17.000000    -8.750001   -17.680000
O    -17.850000    -7.660000   -17.200001
O    -15.630001    -8.520000    17.560001
O    -17.540001    -9.590000    16.730001
H    -17.130001    -9.630001   -15.640001
H    -16.950001    -9.440001    15.970001
O     15.690001    10.490000    16.140001
S     17.310001    10.540000    15.840001
O     17.520000     9.460000    14.880000
O     17.670000    11.940001    15.660001
O    -17.570002    10.050000    17.170002
H     15.030001    10.020000    15.590000
H    -16.970001     9.290000    17.080000
O    -12.550001    14.590001   -16.210001
S    -12.290001    15.720000   -17.380001
O    -11.390000    15.150002    17.330000
O    -13.710001    16.000000   -17.660000
O    -11.570001    16.900002   -16.490000
H    -12.090001    13.840000   -16.620001
H    -10.680000    17.240002   -16.710001
O     -9.670001    11.190001    17.250000
S    -10.800000    11.860001    16.260000
O    -10.880001    10.830001    15.220001
O    -11.950001    12.440001    16.950001
O    -10.000000    13.000001    15.370001
H     -9.580001    10.250001    17.020000
H    -10.340000    13.910000    15.470000
O    -15.670000   -15.950001   -13.670001
S    -15.750000   -14.490002   -12.900001
O    -16.290001   -14.790001   -11.570001
O    -14.450001   -13.880000   -13.170000
O    -16.720001   -13.380001   -13.630000
H    -15.880001   -16.670000   -13.060001
H    -17.280001   -12.800001   -13.070001
O    -13.740001     9.600000   -17.070002
S    -13.890000    10.880001   -16.049999
O    -12.770000    10.860001   -15.090000
O    -14.120001    12.150001   -16.750000
O    -15.400001    10.790000   -15.420000
H    -13.000001     9.110001   -16.670000
H    -15.290001    10.550001   -14.480000
O     14.240000    18.660000    13.530001
S     13.520001   -15.590000    13.670001
O     12.310000   -15.410002    12.870001
O     13.860001   -14.980000    14.960001
O     14.770001   -15.110001    12.710000
H     13.830000    17.889999    13.970001
H     14.910001   -14.150001    12.790001
O    -14.780001    18.590000   -16.400002
S    -13.860001   -15.980000   -17.120001
O    -14.830000   -14.880000   -17.260000
O    -12.450000   -16.040001   -16.700001
O    -13.990001   -16.630001    17.100000
H    -14.350000    18.380001   -15.560001
H    -14.090000   -16.000000    16.370001
O    -14.190001    15.250001    13.150001
S    -13.310001    16.080000    14.250001
O    -14.480000    16.230000    15.130001
O    -12.050000    15.420000    14.630001
O    -13.130001    17.630001    13.700001
H    -15.070001    15.020000    13.490001
H    -12.310000    18.030001    14.010000
O     16.270000   -15.600000   -15.820000
S     15.760001   -16.720001   -16.920000
O     16.880001    18.260000   -17.510000
O     14.690001    18.380001   -16.150002
O     15.260000   -15.720000    17.590000
H     16.090000   -16.010000   -14.960001
H     14.300001   -15.780001    17.410000
O     16.970001   -16.490000    15.090000
S    -17.280001    18.610001    14.720001
O    -16.460001    18.740002    15.920001
O    -17.570002    17.230000    14.300001
O    -16.520000   -16.150002    13.630000
H     16.230000   -16.530001    14.450001
H    -15.630001   -15.840001    13.890000
O    -13.070001    12.560000   -12.920000
S    -13.960000    13.810000   -12.310000
O    -13.380001    15.120001   -11.980000
O    -15.070001    13.490001   -13.210001
O    -14.830000    13.190001   -11.060000
H    -12.280001    12.910000   -13.340001
H    -14.630001    13.290001   -10.110001
O     14.150001    14.540001   -16.440001
S     15.120001    13.230000   -16.200001
O     16.390001    13.930000   -15.960001
O     14.610001    12.390001   -15.110001
O     14.970001    12.460001   -17.640001
H     13.410001    14.550000   -15.810001
H     14.980000    11.500001   -17.470001
O     16.730001     8.680000   -15.360001
S     16.980001     9.870001   -14.250001
O     17.820000     9.410001   -13.130001
O     17.420002    10.950001   -15.130001
O     15.370001    10.120001   -14.010000
H     17.260000     7.890000   -15.190001
H     15.130001    11.030001   -14.250001
O    -12.510000    -9.960001    17.660000
S    -13.430000   -11.320001    17.470001
O    -13.560000   -11.880001   -16.900002
O    -14.580001   -11.120001    16.580002
O    -12.250000   -12.390001    16.990002
H    -13.040000    -9.220000    17.310001
H    -12.260000   -12.630000    16.049999
O     14.350000    14.530001    12.550001
S     15.240001    14.640001    13.930000
O     16.690001    14.470000    13.780001
O     14.570000    15.750000    14.630001
O     14.850000    13.270000    14.750000
H     14.710001    14.850000    11.700001
H     14.670001    13.480000    15.680000
O    -15.730000    10.890001    13.960000
S    -14.940001    12.060001    14.830000
O    -15.570001    13.380001    14.680000
O    -14.630001    11.530000    16.160000
O    -13.400001    12.140001    14.270000
H    -16.650002    11.120001    13.730000
H    -13.040000    13.040000    14.290000
O     17.810001    12.750001   -12.810000
S     17.400002    13.180000   -11.280001
O    -17.870001    12.160001   -10.330000
O    -17.870001    14.520000   -10.890001
O     15.760001    13.030001   -11.300000
H    -17.640001    13.570002   -13.260001
H     15.380001    13.920001   -11.390000
O    -15.370001    16.100002   -14.840001
S    -16.780001    16.460001   -14.000001
O    -16.390001    17.040001   -12.680000
O    -17.460001    17.470001   -14.870001
O    -17.610001    15.220001   -13.910000
H    -14.610001    16.040001   -14.190001
O     16.390001   -11.000000    12.450000
S     16.710001   -12.300000    13.480000
O     17.680000   -11.740000    14.470000
O     15.330001   -12.560000    13.960000
O     17.260000   -13.290001    12.510000
H     16.780001   -11.160001    11.540001
O    -14.710001   -12.540001    13.780001
S    -13.790001   -13.950001    13.630000
O    -12.340001   -13.660001    13.510000
O    -14.040001   -14.640001    14.940001
O    -14.450001   -14.630001    12.480000
H    -14.650001   -12.200001    14.720001
