177
MATCHED 3H_P_A2O_HSO3_HHS19_H3O0 t=5180.0 HSO=3 HHS=19 H3O=0
C     15.440001    22.350002    17.230000
C     16.430000    22.230000    18.140001
C     17.630001    22.770002    17.880001
O     18.530001    23.030003    18.880001
O     18.080002    22.940002    16.600000
H     15.580001    22.920000    16.320002
H     14.450001    21.940001    17.370001
H     16.230000    21.830002    19.120001
H     18.130001    23.010002    19.740002
H     18.930000    23.340000    16.620001
C     18.430000    15.520000    16.790001
C     19.220001    15.430001    18.090002
C     19.530001    14.010000    18.520000
N     18.650002    13.250000    19.250000
O     20.700001    13.480000    18.030001
N     20.440002    16.250002    18.160002
H     17.450001    15.040001    16.840002
H     18.220001    16.510000    16.390001
H     18.910000    15.030001    15.940001
H     18.500002    15.740002    18.850000
H     17.810001    13.640001    19.650002
H     18.820002    12.340001    19.650002
H     20.840000    12.580000    18.290001
H     21.240002    15.830001    17.720001
H     20.300003    17.140001    17.710001
H     20.530003    16.480001    19.139999
O    -13.250000    19.320000   -13.810000
S    -12.710000    53.760002   -14.770001
O    -12.250000    52.550003   -14.090000
O    -13.730000    53.610001   -15.810001
O    -11.340000    18.840000   -15.270000
H    -14.190001    19.560001   -13.780001
H    -10.580001    53.930000   -15.100001
O    -14.330001    21.680002    18.050001
S    -12.700001    21.639999    18.110001
O    -12.240001    21.960001    16.760002
O    -12.370001    22.340002   -16.320002
O    -12.290001    20.050001    18.230001
H    -14.480000    22.470001   -17.080000
H    -11.560000    19.970001   -16.820000
O     17.450001    47.510002    16.570000
S     17.630001    47.600002    14.930000
O    -16.900002    48.500004    14.910001
O     17.610001    46.240002    14.390000
O     16.480001    48.560005    14.250001
H     17.150000    46.800003    17.170002
H     15.840001    48.050003    13.720001
O    -13.790001    49.139999   -12.760000
S    -13.030001    48.260002   -13.920001
O    -14.350000    47.720001   -14.290000
O    -12.100000    49.190002   -14.550000
O    -12.210001    47.150002   -13.020000
H    -14.090000    50.000000   -13.130001
H    -11.260000    47.099998   -13.290001
O     13.590001    18.920000    14.570000
S     15.070001    53.940002    14.240000
O     15.500001    52.900005    15.170001
O     15.090000    53.530003    12.830001
O     16.120001    19.500000    14.490002
H     13.010001    53.920002    14.950001
H     16.670000    19.130001    15.200001
O    -10.800000    52.560001    17.650002
S    -11.130000    50.990005    18.000000
O    -12.600001    51.000004    18.120001
O    -10.310000    50.180000    17.090000
O    -10.520000    50.660004   -16.190001
H    -10.400001    52.630005    16.770000
H    -11.180000    50.250000   -15.600000
O     13.260001    22.139999    13.500000
S     12.400000    23.540001    13.420000
O     13.270000    24.230001    12.480000
O     10.930000    23.460003    13.370000
O     12.790001    24.040001    14.940001
H     12.750001    21.310001    13.510000
H     12.050000    24.400002    15.470000
O    -12.280001    51.200005    14.990001
S    -13.760000    50.730003    14.420000
O    -14.350000    51.130005    15.700001
O    -14.280001    51.270004    13.160001
O    -13.750001    49.100002    14.190001
H    -11.950001    51.880001    14.390000
H    -14.420000    48.660004    14.730000
O     13.210001    21.740000   -14.880000
S     11.560000    21.770000   -14.990001
O     11.030001    20.670002   -14.190001
O     11.180000    23.170002   -14.740001
O     11.110001    21.270000   -16.500000
H     13.530001    21.040001   -14.290000
H     10.650001    21.950001   -17.010000
O     16.200001    22.600000    13.940001
S     16.960001    23.830002    13.150001
O    -17.570002    23.010002    12.770000
O     16.230000    24.340000    11.990000
O     17.210001    24.910002    14.370001
H     15.370001    22.420002    13.460001
H     17.350002    25.760002    13.930000
O    -15.830001    21.990002   -11.950001
S    -16.950001    21.400002   -13.010001
O     17.390001    21.330002   -12.450000
O    -16.500000    22.240002   -14.130001
O    -16.290001    20.010002   -13.620001
H    -16.290001    22.040001   -11.090001
H    -16.770000    19.250000   -13.270000
O    -13.710001    44.459999    16.180000
S    -14.330001    45.340004    14.940001
O    -14.790001    46.639999    15.450001
O    -13.410001    45.190002    13.810000
O    -15.680000    44.459999    14.570000
H    -12.770000    44.650002    16.350000
H    -15.790001    44.320000    13.610001
O     17.360001    26.030003   -17.220001
S     17.030001    27.270002    17.430000
O     16.960001    28.410000   -17.340000
O     18.090002    27.260000    16.410000
O     15.510001    26.860001    16.950001
H     17.380001    26.300001   -16.290001
H     15.530001    26.760002    15.980000
O    -14.150001    54.090004    16.639999
S    -14.840001    19.280001    15.430001
O    -16.020000    19.650002    16.240002
O    -14.010000    20.260000    14.730000
O    -15.210000    53.950005    14.170000
H    -13.220000    54.350006    16.570000
H    -14.890001    54.410004    13.370000
O     16.360001    19.030001   -15.560001
S     16.270000    53.920002   -17.000000
O     17.410000    54.410004    17.889999
O     16.170002    52.480003   -16.760002
O     15.060000    18.780001    17.700001
H     16.280001    53.940002   -14.960001
H     14.410001    53.740002    17.730001
O    -11.260000    45.580002   -17.290001
S    -11.290001    47.130005    17.830002
O    -12.270001    47.710003   -16.930000
O     -9.840000    47.230000    17.620001
O    -12.160001    47.010002    16.430000
H    -11.640000    45.490002   -16.400002
H    -11.880001    47.520004    15.660001
O     13.780001    50.690002   -16.580002
S     13.770000    50.709999    17.460001
O     13.570002    52.130005    17.180000
O     14.980000    50.110001    16.890001
O     12.420001    49.950005    16.880001
H     14.500000    50.160004   -16.190001
H     12.680000    49.300003    16.200001
O    -17.420002    25.230000   -13.700001
S     16.720001    25.780001   -13.620001
O     16.440001    25.990002   -12.190001
O     16.680000    26.780003   -14.690001
O     16.160000    24.360001   -14.220000
H    -16.910002    25.450001   -12.900001
H     15.240001    24.420002   -14.550000
O    -16.830002    44.940002    17.170002
S    -16.140001    45.150002   -17.030001
O    -15.860001    44.000000   -16.160000
O    -15.450001    46.450005   -17.020000
O    -17.500002    45.860004   -16.400002
H    -16.520000    44.070000    16.880001
H    -17.420002    45.480003   -15.500001
O    -17.250000    51.270004   -13.500000
S    -15.790001    51.959999   -13.970001
O    -16.370001    52.950001   -14.920001
O    -15.300001    52.600002   -12.710000
O    -14.940001    50.930004   -14.640001
H    -17.050001    50.290001   -13.570002
O    -14.980000    26.750002    17.790001
S    -14.380001    25.170002    17.720001
O    -15.400001    24.500000    16.880001
O    -13.070001    25.360001    17.050001
O    -14.350000    24.670000   -16.550001
H    -15.850000    26.660002    17.310001
O     14.480000    47.740002   -14.670001
S     15.820000    48.680000   -14.280001
O     15.280001    49.520000   -13.180000
O     16.980001    47.820000   -13.920001
O     16.010000    49.490005   -15.520000
H     14.590001    46.750000   -14.580001
