170
MATCHED 3H_R_C2_HSO3_HHS18_H3O0 t=6020.0 HSO=3 HHS=18 H3O=0
N     15.030001    21.910002    24.510002
C     13.920001    22.060001    23.560001
C     14.370001    21.960001    22.100000
C     12.860001    20.990002    23.740002
O     13.320000    19.710001    23.860001
N     11.500001    21.200001    23.750000
C     10.690001    22.369999    23.460003
C     10.570001    23.300001    24.670000
C     11.020000    23.059999    22.160000
O     11.800001    24.190002    22.260000
O     10.890001    22.480001    20.930002
H     15.360001    20.960003    24.360001
H     15.790001    22.570002    24.400002
H     13.450001    23.010002    23.810001
H     10.860001    20.440002    23.930000
H      9.700001    21.990002    23.230001
H     10.240001    21.800001    20.880001
H     15.030001    22.800003    21.890001
H     13.620001    21.890001    21.310001
H     14.960001    21.090002    21.820002
H     11.500001    23.600002    25.160000
H      9.960001    22.860001    25.459999
H     10.020000    24.150002    24.270000
H     14.610001    22.090000    25.410002
H     12.650002    19.050001    23.780001
H     12.000000    24.540003    21.410000
O     14.190001    20.230000    27.050001
S     13.030001    21.119999    27.830002
O     12.470001    21.800001    26.660002
O     12.110001    20.459999    28.760002
O     13.980001    22.260000    28.540001
H     14.110001    19.280001    27.240002
H     13.820001    22.400000    29.490002
O      6.880000    18.880001    25.180000
S      7.280001    20.260000    25.990002
O      8.730000    20.240002    26.220001
O      6.720000    21.440001    25.340002
O      6.590000    20.389999    27.480001
H      6.480000    18.990000    24.300001
H      7.240000    20.720001    28.130001
O     12.780001    21.170002    15.980000
S     12.830001    22.520000    16.930000
O     12.910000    21.900002    18.260000
O     13.750001    23.630001    16.690001
O     11.280001    23.080002    16.960001
H     13.420000    21.280001    15.250001
H     11.200000    23.980000    16.610001
O     13.840000    18.000000    21.280001
S     12.550001    18.480000    20.370003
O     11.720000    17.280001    20.340002
O     12.360001    19.830000    20.920000
O     13.070001    18.600002    18.810001
H     14.610001    18.080002    20.700001
H     12.380000    18.140001    18.300001
O     17.870001    19.040001    18.500002
S     16.480001    19.530001    19.230001
O     15.990001    18.400000    20.030001
O     16.680000    20.770000    19.990002
O     15.510001    20.310001    18.160002
H     18.720001    19.340002    18.870001
H     14.650001    19.840000    18.090002
O      8.960000    21.720001    28.970001
S      9.380000    23.310001    28.830002
O      9.160001    24.020002    30.100002
O     10.650001    23.680000    28.210001
O      8.530001    23.790001    27.510002
H      9.860001    21.350000    28.940001
H      8.140000    24.640003    27.790001
O     19.490002    21.160002    20.500002
S     19.380001    20.540001    22.020000
O     18.740002    21.440001    22.980001
O     18.840000    19.210001    21.760002
O     20.930002    20.210001    22.480001
H     18.740002    21.760002    20.350000
H     21.170002    19.280001    22.630001
O     11.820001    29.070000    24.000000
S     11.370001    28.140001    25.270002
O     10.030001    28.660002    25.560001
O     11.580001    26.770000    24.770002
O     12.360001    28.740002    26.440001
H     12.040001    28.600002    23.170002
H     12.300000    27.980001    27.040003
O     12.930001    15.570001    28.420002
S     13.720001    16.000000    27.040003
O     13.030001    15.350000    25.930002
O     13.810000    17.460001    27.220001
O     15.240001    15.350000    27.030001
H     12.220000    14.950001    28.170002
H     15.390000    15.090000    26.100002
O     16.500000    17.930000    25.810001
S     16.840002    18.230001    24.230001
O     16.170002    19.410002    23.680000
O     17.960001    17.380001    23.810001
O     15.500001    17.350002    23.890001
H     17.290001    18.140001    26.340000
H     15.830001    16.600000    23.370001
O     17.360001    22.880001    27.080002
S     17.870001    21.310001    27.030001
O     17.300001    20.800001    25.780001
O     19.250000    21.190002    27.510002
O     17.000000    20.490000    28.160002
H     17.930000    23.600002    27.400002
H     16.470001    21.020000    28.770000
O     18.370001    22.980001    18.300001
S     17.300001    23.960001    19.080002
O     17.889999    25.300003    18.990000
O     15.920001    23.870001    18.580000
O     17.370001    23.500002    20.660000
H     18.030001    22.840002    17.400002
H     17.680000    24.310001    21.090002
O      5.760000    24.110001    23.690002
S      6.240000    25.180000    24.840002
O      5.210000    25.130001    25.890003
O      7.700000    25.220001    24.940002
O      5.920000    26.610001    24.090002
H      6.510000    23.530003    23.470001
H      6.660000    27.220001    24.209999
O      8.720000    22.299999    16.550001
S      7.830000    23.220001    17.580002
O      8.340000    24.590000    17.470001
O      6.360001    23.290001    17.560001
O      8.430000    22.740002    19.030001
H      8.120001    21.860001    15.920001
H      7.750000    22.810001    19.720001
O     10.150002    17.660000    17.990002
S      9.520000    19.090000    17.480000
O     10.190001    19.370001    16.210001
O      8.080000    19.139999    17.750000
O     10.340000    20.200001    18.390001
H      9.840000    17.040001    17.300001
H     10.340000    20.990002    17.810001
O     10.290001    25.550001    20.330000
S      8.920000    26.030003    21.110001
O      8.150001    26.730001    20.070002
O      8.640000    24.870003    21.950001
O      9.600000    27.040003    22.220001
H     10.190001    25.630001    19.370001
H      9.100000    27.880001    22.190001
O     12.890000    25.680000    27.740002
S     14.340000    25.400002    27.020000
O     15.390000    25.680000    28.010002
O     14.220000    24.230001    26.140001
O     14.190001    26.600000    25.900002
H     12.230000    24.970001    27.820000
H     14.990001    26.530001    25.350000
O     13.500000    27.590000    19.480001
S     14.080001    26.420002    20.480001
O     13.300000    25.210001    20.190001
O     15.540000    26.590002    20.520000
O     13.730000    27.060001    21.960001
H     13.130001    27.210003    18.670002
H     14.320001    26.670000    22.630001
O      8.890000    20.510002    21.220001
S      7.290000    20.900002    21.580000
O      6.490001    20.970001    20.330000
O      6.840000    19.780001    22.460001
O      7.490000    22.160000    22.350002
H      8.990001    19.580000    21.580000
O     17.250000    23.670002    23.980000
S     16.730001    25.270002    23.820002
O     15.350000    25.030001    23.320000
O     16.880001    25.780001    25.210001
O     17.800001    25.520000    22.810001
H     18.080002    23.549999    23.430002
O      9.770000    18.750002    23.650000
S     10.670000    17.720001    24.650002
O     11.630001    17.170002    23.650000
O     11.300000    18.600002    25.670002
O      9.710001    16.670000    25.100002
H      8.820001    18.440001    23.680000
