177
MATCHED 3H_R_C3_HSO3_HHS19_H3O0 t=2980.0 HSO=3 HHS=19 H3O=0
N     17.920000    17.520000    12.630000
C     17.340000    17.160000    13.940001
C     18.250000    17.340000    15.160000
C     16.010000    17.800001    14.220000
O     15.100001    17.130001    14.980000
N     15.880001    19.160002    14.030001
C     14.650001    19.850002    14.380001
C     14.830000    21.370001    14.460001
C     13.510000    19.540001    13.440001
O     13.610001    19.840000    12.110001
O     12.260000    19.390001    13.990001
H     18.450001    18.380001    12.650002
H     18.600002    16.850000    12.310000
H     17.120001    16.100002    13.840000
H     16.660002    19.700001    13.680000
H     14.410001    19.580000    15.410002
H     11.690001    19.370001    13.240002
H     19.310001    17.260000    14.930000
H     18.060001    16.510000    15.830001
H     18.090002    18.200001    15.810001
H     14.050001    21.920002    14.980000
H     15.020000    21.880001    13.510000
H     15.750000    21.610001    15.000001
H     17.150000    17.610001    11.980000
H     15.160000    16.190001    15.100001
H     14.300001    20.480001    12.020000
O      9.230000    17.380001    11.660000
S     10.220001    18.210001    10.630001
O      9.290000    18.750002     9.630001
O     11.070000    18.940001    11.570001
O     11.020000    17.070002     9.750000
H      9.000000    16.440001    11.530000
H     11.980000    17.190001     9.610001
O     23.400002    18.150002    11.590000
S     22.120001    19.170000    11.460000
O     20.910000    18.590000    12.050000
O     22.680000    20.490000    11.760000
O     21.920002    19.090000     9.820001
H     23.030003    17.410000    12.120000
H     22.280003    19.830000     9.300001
O     11.160001    15.430001    17.390001
S     10.960001    16.260000    15.980000
O     12.370001    16.510000    15.660001
O     10.200001    15.240001    15.260000
O     10.390000    17.800001    16.150002
H     12.000000    14.950001    17.430000
H      9.500000    17.800001    15.740002
O     12.840000    18.200001     7.440000
S     13.380001    19.680000     7.910000
O     12.900001    20.680000     6.950001
O     13.060001    19.610001     9.340000
O     15.020000    19.550001     7.970000
H     12.010001    18.150002     6.930000
H     15.550001    20.150002     7.420001
O     16.470001    23.540001    10.090000
S     14.930000    22.970001     9.930000
O     14.900002    22.800003     8.480000
O     14.990001    22.020000    11.050000
O     13.770000    24.080002    10.310000
H     16.490000    24.460001    10.390000
H     13.040000    23.940001     9.690001
O     19.450001    20.850000    17.070002
S     17.970001    21.470001    17.410000
O     17.910002    22.920000    17.200001
O     16.870001    20.650002    16.900002
O     17.860001    21.310001    19.050001
H     19.800001    21.560001    16.510000
H     17.910002    22.220001    19.400002
O     18.870001    12.750001    10.640000
S     18.220001    13.570002     9.360001
O     18.600002    14.970001     9.600000
O     18.630001    12.800001     8.180000
O     16.630001    13.580000     9.770000
H     19.640001    13.180000    11.040001
H     16.360001    14.500000     9.940001
O     16.170002    18.490002    20.020000
S     15.220001    17.610001    19.000000
O     15.930000    17.420002    17.730001
O     14.790001    16.470001    19.810001
O     13.910000    18.540001    18.650002
H     16.570000    18.010002    20.770000
H     14.220000    19.450001    18.820002
O     19.750002    17.150000    18.380001
S     19.800001    15.580001    18.880001
O     20.050001    15.560001    20.320000
O     18.600002    14.980000    18.290001
O     21.080000    15.100001    17.970001
H     19.890001    17.740000    19.139999
H     21.020000    14.200001    17.600000
O     19.890001    21.300001     9.300001
S     18.690001    20.160000     9.270000
O     18.890001    19.070000    10.230000
O     17.600000    21.140001     9.360001
O     18.800001    19.500000     7.770000
H     19.970001    21.990002     9.980000
H     18.900002    18.550001     7.970000
O     24.090002    19.800001    14.290000
S     22.830000    20.370003    15.180001
O     23.440001    20.040001    16.470001
O     22.170000    21.650002    14.870001
O     21.800001    19.100000    14.980000
H     24.570000    20.570002    13.930000
H     20.920000    19.410002    14.730000
O     10.650001    20.380001    19.170000
S     11.190001    21.480000    18.060001
O     11.000000    22.850000    18.540001
O     12.360001    20.980000    17.330000
O      9.820001    21.610001    17.150000
H     11.170001    19.560001    19.180000
H      9.870001    21.570000    16.170002
O     16.390001    13.410001    18.270000
S     15.310000    13.900002    17.120001
O     14.110001    14.480000    17.720001
O     15.950001    14.840001    16.180000
O     14.790001    12.630000    16.220001
H     17.230000    13.890000    18.250000
H     13.850001    12.390001    16.300001
O     13.480000    23.130001    20.250000
S     14.710001    22.550001    19.320000
O     15.860001    23.210001    19.960001
O     14.480000    21.100002    19.260002
O     14.320001    23.310001    17.910002
H     12.750001    22.500000    20.350000
H     15.060000    23.820002    17.540001
O     19.000000    13.620001    14.900002
S     18.240002    12.190001    14.590001
O     18.940001    11.740000    13.380001
O     17.870001    11.530000    15.840001
O     16.900002    12.810000    13.860001
H     19.890001    13.720001    14.520000
H     16.890001    12.510000    12.930001
O      7.450001    20.010002    12.260000
S      7.930000    20.960003    13.520001
O      6.690001    21.310001    14.230001
O      9.060000    20.230000    14.100000
O      8.600000    22.260000    12.760000
H      7.560000    19.070000    12.490001
H      8.290001    23.130001    13.060001
O     11.400002    13.090000    13.330001
S     12.680000    13.960000    12.770000
O     13.490001    14.550000    13.840000
O     13.150001    12.970000    11.790000
O     12.040001    15.150002    11.840000
H     11.520000    12.570001    14.150001
H     12.580000    15.970001    11.840000
O     13.230000    24.350002    13.600000
S     11.750001    23.630001    13.590001
O     11.610001    22.690001    14.700001
O     10.730000    24.470001    12.940001
O     12.000000    22.450001    12.460001
H     13.400001    24.900000    14.390000
H     11.250000    22.380001    11.850000
O      9.220000    23.630001     9.510000
S     10.280000    22.510002     8.920000
O      9.610001    21.809999     7.810000
O     11.500001    23.320000     9.000000
O     10.580001    21.410000    10.110001
H      8.640000    23.940001     8.800000
H     10.590000    20.640001     9.520000
O     17.380001    20.940001    12.270001
S     18.770000    21.310001    13.150001
O     19.740002    21.750002    12.120000
O     18.290001    22.390001    14.060000
O     18.990000    20.010002    13.850001
H     17.350002    21.600000    11.520000
O     21.550003    14.060000    14.020000
S     21.360001    14.920001    12.580000
O     20.100000    15.680000    12.780001
O     22.560001    15.790001    12.480000
O     21.290001    14.060000    11.360001
H     22.310001    14.310001    14.620000
O     15.830001    18.130001    10.620001
S     14.820002    16.800001    10.850000
O     14.160000    16.610001     9.530001
O     15.910001    15.880001    11.270000
O     13.930000    17.080000    12.010001
H     15.450001    18.610001     9.830000
