170
MATCHED 3H_R_C3_HSO3_HHS18_H3O0 t=0.0 HSO=3 HHS=18 H3O=0
N     17.750000    19.150002    15.090000
C     16.300001    18.890001    15.020000
C     15.930000    18.080002    13.780001
C     15.670000    18.350000    16.280001
O     15.910001    17.020000    16.530001
N     14.960001    19.170000    17.140001
C     14.310001    18.680000    18.330000
C     14.570000    19.620001    19.510000
C     12.840000    18.610001    18.000000
O     12.100000    19.760000    17.910002
O     12.220000    17.400002    17.840000
H     18.050001    19.800001    14.380001
H     17.940001    19.560001    15.990001
H     15.890001    19.890001    14.900002
H     14.840001    20.170002    17.040001
H     14.710001    17.770000    18.790001
H     12.760000    16.620001    17.810001
H     16.530001    18.410000    12.930001
H     14.850000    18.130001    13.670001
H     16.260000    17.050001    13.920001
H     14.140000    20.600002    19.340002
H     15.610001    19.520000    19.820002
H     13.970001    19.370001    20.380001
H     18.320002    18.320002    15.050001
H     16.560001    16.510000    16.080000
H     11.260000    19.430000    17.620001
O     14.310001    23.090000    22.060001
S     13.760000    21.780003    22.900002
O     13.810000    22.110003    24.330002
O     12.570001    21.400002    22.139999
O     15.030001    20.760002    22.630001
H     14.640001    23.640001    22.790001
H     14.960001    20.000000    23.230001
O     11.300000    18.480000    22.390001
S     12.360001    17.230000    22.340002
O     12.210001    16.200001    23.370001
O     12.460001    16.840002    20.930002
O     13.870001    17.810001    22.680000
H     10.530001    18.330000    22.959999
H     14.180001    17.510000    23.549999
O     15.650001    20.280001    11.220001
S     15.900001    20.830002     9.690001
O     16.920000    21.890001     9.770000
O     16.110001    19.710001     8.760000
O     14.400001    21.380001     9.300001
H     16.440001    20.630001    11.670000
H     14.360001    22.350002     9.220000
O     10.040001    21.170002    21.020000
S      9.270000    22.480001    21.650002
O     10.100000    23.360003    22.470001
O      8.800000    23.050001    20.380001
O      7.920001    21.910002    22.410002
H     11.000000    21.290001    21.150000
H      7.930000    22.340002    23.280001
O     13.040000    20.520000    12.680000
S     12.370001    21.100002    14.070001
O     10.910001    21.100002    14.010000
O     13.130001    20.389999    15.100001
O     12.880001    22.660000    14.140000
H     12.500000    20.010002    12.050000
H     12.860001    23.100002    13.270000
O     19.530001    15.160000    10.540000
S     19.750002    16.130001    11.860001
O     18.430000    16.730001    12.040001
O     20.110001    15.240001    12.970000
O     20.700001    17.460001    11.670000
H     19.450001    14.260001    10.890001
H     20.300003    18.340000    11.650001
O     16.710001    14.550000    20.380001
S     17.180000    16.010000    20.990002
O     16.060001    16.920000    20.710001
O     17.760002    15.870001    22.330000
O     18.380001    16.610001    20.040001
H     16.840002    13.920001    21.100002
H     18.260000    17.450001    19.580000
O     11.040001    12.810000    15.190001
S      9.930000    13.520001    16.190001
O      9.840000    12.540001    17.280001
O     10.450001    14.850000    16.480001
O      8.620001    13.640001    15.210000
H     11.890000    13.280001    15.130001
H      8.300000    14.550000    15.350000
O     12.460001    23.770000    17.060001
S     12.590000    23.740002    18.700001
O     11.760000    24.910002    19.040001
O     12.320002    22.390001    19.180000
O     14.130001    24.170000    19.110001
H     12.030001    23.010002    16.630001
H     14.570000    23.620003    19.780001
O     16.970001    21.450003    17.290001
S     16.049999    22.620001    16.590000
O     14.820002    21.960001    17.030001
O     16.460001    23.890001    17.180000
O     16.200001    22.570002    14.950001
H     17.600000    21.760002    17.960001
H     16.430000    23.450001    14.590001
O     18.330000    13.940001    17.990002
S     19.520000    13.050001    18.710001
O     20.350000    14.250001    18.880001
O     19.170000    12.100000    19.760000
O     20.130001    12.300000    17.370001
H     17.470001    13.600000    18.290001
H     20.459999    11.480000    17.790001
O     20.910000    17.260000    15.250001
S     20.010002    16.140001    16.049999
O     18.590000    16.340000    15.720000
O     20.640001    14.830000    15.870001
O     20.100000    16.690001    17.600000
H     21.790001    16.920000    14.980000
H     20.550001    16.010000    18.140001
O     10.790000    17.700001    14.750000
S     11.960001    16.720001    14.130001
O     13.100000    16.800001    15.040001
O     11.500001    15.370001    13.780001
O     12.160001    17.490002    12.680000
H      9.900001    17.330000    14.660001
H     11.710000    17.000000    11.970000
O     15.700001    12.590000    14.580001
S     16.910002    13.660001    14.260001
O     17.220001    13.470001    12.840000
O     16.410000    14.880000    14.900002
O     18.140001    12.960000    15.100001
H     14.900002    13.080001    14.830000
H     18.700001    13.610001    15.550001
O     17.690001    17.290001     9.050000
S     16.340000    16.420000     9.400001
O     15.780001    17.060001    10.590000
O     15.560001    16.230000     8.170000
O     16.820000    14.930000     9.900001
H     17.700001    17.900002     9.810000
H     16.250002    14.680000    10.650001
O     14.080001    13.520001    10.460000
S     13.330001    13.510000    11.930000
O     14.160000    14.480000    12.650002
O     11.880001    13.430000    11.740000
O     13.640001    12.080001    12.690001
H     13.580000    14.140000     9.900001
H     12.990000    11.370001    12.820001
O      8.090000    21.190002    18.500002
S      8.800000    21.340000    17.020000
O      7.780001    21.390001    15.960001
O      9.970000    22.160000    17.350002
O      9.550000    19.920002    16.670000
H      8.440001    21.770000    19.200001
H      9.080001    19.490002    15.940001
O      8.790001    17.570002    18.000000
S      8.920000    17.910002    19.610001
O     10.090000    18.790001    19.640001
O      7.550001    18.300001    19.970001
O      9.300001    16.639999    20.590000
H      7.910000    17.510000    17.590000
H      8.630000    16.620001    21.290001
O     13.380001    13.950001    15.880001
S     13.810000    13.870001    17.510000
O     13.670001    15.260000    18.020000
O     12.740001    13.070001    18.160002
O     15.210000    13.340001    17.550001
H     12.950001    14.840001    15.740002
O     19.280001    21.370001    19.060001
S     19.630001    19.800001    18.560001
O     18.390001    19.040001    18.860001
O     19.690001    19.860001    17.070002
O     20.810001    19.210001    19.270000
H     20.080002    21.930000    18.850000
O     19.950001    19.790001    13.180000
S     19.000000    20.400002    11.920000
O     18.670002    19.320000    10.950001
O     17.840000    20.870001    12.740001
O     19.880001    21.480000    11.400002
H     20.930002    19.960001    13.140000
