177
MATCHED 3H_R_C2_HSO3_HHS19_H3O0 t=40.0 HSO=3 HHS=19 H3O=0
N     18.030001    18.100000    16.400002
C     16.920000    18.920000    15.900001
C     16.870001    18.800001    14.380001
C     15.580001    18.620001    16.530001
O     15.170001    17.310001    16.610001
N     14.680000    19.590000    16.940001
C     14.670001    21.020000    17.110001
C     15.730000    21.490002    18.110001
C     14.680000    21.850002    15.850000
O     15.150002    23.130001    15.810001
O     13.720001    21.490002    14.940001
H     18.920000    18.280001    15.960001
H     18.120001    18.400000    17.360001
H     17.250000    19.940001    16.100002
H     13.750001    19.280001    17.170002
H     13.700001    21.380001    17.460001
H     13.430000    20.600002    15.030001
H     17.050001    17.760002    14.110001
H     17.670000    19.270000    13.800001
H     15.900001    19.030001    13.940001
H     16.730001    21.780003    17.800001
H     15.860001    20.770000    18.920000
H     15.350000    22.369999    18.640001
H     17.880001    17.100000    16.370001
H     14.310001    17.100000    16.940001
H     14.740001    23.460003    15.030001
O     18.630001    23.590002    19.870001
S     19.580000    22.660000    20.830002
O     20.280001    23.530003    21.780003
O     18.840000    21.550003    21.440001
O     20.760002    22.050001    19.840000
H     18.790001    24.440001    20.330000
H     21.060001    21.160002    20.080002
O     18.340000    16.630001    12.350000
S     19.810001    16.400002    13.050001
O     19.230001    15.770000    14.230001
O     20.480001    15.550001    12.060001
O     20.440002    17.870001    13.480000
H     18.360001    16.540001    11.380000
H     21.260002    18.040001    12.970000
O     16.520000    20.300003    21.700001
S     16.230000    19.500000    23.110001
O     17.460001    19.230001    23.870001
O     14.960001    20.050001    23.590002
O     15.980000    18.030001    22.410002
H     17.440001    20.630001    21.700001
H     15.500001    17.400002    22.980001
O     15.680000    12.930001    14.530001
S     15.980000    14.250001    13.590001
O     16.030001    15.490000    14.370001
O     17.040001    13.800001    12.690001
O     14.610001    14.460001    12.690001
H     16.470001    12.410001    14.310001
H     14.850000    14.540001    11.750001
O     20.010002    18.530001    10.500001
S     19.120001    19.890001    10.780001
O     19.300001    20.910000     9.750000
O     17.860001    19.190002    11.060000
O     19.740002    20.450001    12.210001
H     20.530003    18.730001     9.700001
H     19.550001    21.400002    12.280001
O     15.330001    15.220001    19.010002
S     14.350000    14.090000    18.310001
O     15.000001    12.890000    17.770000
O     13.230000    13.890000    19.230001
O     13.640001    14.800000    17.000000
H     15.370001    15.090000    19.970001
H     13.670001    14.190001    16.250002
O      8.500000    23.010002    15.810001
S      8.990001    22.580002    14.300001
O     10.410000    22.560001    14.630001
O      8.190001    21.480000    13.740001
O      8.750001    23.910000    13.360001
H      8.020000    22.190001    16.030001
H      9.610001    24.139999    12.970000
O     12.440001    26.910002    16.100002
S     11.710000    25.540001    15.560001
O     10.980000    25.830002    14.330001
O     12.760000    24.520000    15.690001
O     10.640000    25.100002    16.730001
H     12.240001    27.720001    15.600000
H     10.890001    24.220001    17.080000
O     20.040001    14.530001    18.450001
S     18.840000    14.190001    17.380001
O     18.200001    13.070001    18.090002
O     18.000000    15.350000    17.050001
O     19.530001    13.690001    15.970001
H     20.200001    13.940001    19.200001
H     18.870001    13.830000    15.270000
O     12.900001    19.540001    19.780001
S     13.450001    18.000000    20.000000
O     13.050001    17.290001    21.220001
O     12.990000    17.440001    18.730001
O     15.090000    18.040001    19.800001
H     12.360001    19.950001    20.470001
H     15.390000    17.520000    20.570002
O     17.080000    25.940001    15.420000
S     16.049999    27.060001    14.810000
O     14.800000    26.400002    14.400001
O     15.980000    27.960003    15.960001
O     16.750000    27.910002    13.590001
H     17.600000    25.620001    14.660001
H     16.100002    27.970001    12.860001
O     10.040001    21.040001    19.360001
S     10.530001    22.570002    19.030001
O     11.480000    22.600000    17.910002
O      9.280001    23.340000    18.990000
O     11.540001    22.930002    20.270002
H      9.080001    21.070002    19.460001
H     11.130000    23.740002    20.630001
O     19.030001    21.820002    16.340000
S     20.490000    21.210001    15.900001
O     20.040001    20.130001    15.020000
O     21.360001    22.270000    15.380001
O     21.310001    20.270002    16.990002
H     19.020000    22.800003    16.390001
H     21.940001    20.850000    17.450001
O     16.160000    16.590000    10.370001
S     14.740001    17.370001    10.670000
O     14.990001    17.510000    12.110001
O     14.740001    18.510000     9.740001
O     13.420000    16.400002    10.540000
H     16.690001    16.900002     9.620001
H     12.750001    16.820000     9.970000
O     14.650001    20.960003    11.850000
S     15.620001    22.270000    12.080001
O     16.370001    21.700001    13.200001
O     16.280001    22.710001    10.850000
O     14.740001    23.480000    12.770000
H     14.470000    20.800001    10.910001
H     14.660001    24.170000    12.100000
O     10.520000    20.190001     9.850000
S     10.780001    20.090000    11.470001
O     11.530000    21.270000    11.890000
O      9.460000    19.580000    11.840000
O     11.920000    18.900002    11.610001
H      9.550000    20.190001     9.770000
H     12.650002    19.190002    12.190001
O     16.740000    25.200003    18.260000
S     15.360001    25.890003    18.830002
O     15.440001    25.389999    20.210001
O     15.030001    27.200001    18.270000
O     14.140000    24.860001    18.450001
H     17.480000    25.650002    17.810001
H     13.260001    24.930000    18.860001
O     22.100000    15.530001    15.570001
S     22.170000    17.050001    16.200001
O     22.880001    17.900002    15.240001
O     20.750000    17.390001    16.330002
O     22.840002    17.040001    17.710001
H     22.620001    15.460001    14.760000
H     22.130001    17.500002    18.200001
O     17.920000    25.020000    11.610001
S     18.950001    24.320002    12.690001
O     18.100000    24.110001    13.860001
O     19.640001    23.170002    12.100000
O     19.960001    25.450001    13.340001
H     18.140001    24.380001    10.910001
H     20.910000    25.320000    13.170000
O     11.850000    19.720001    16.560001
S     11.640000    18.590000    15.330001
O     10.270000    18.830002    14.790001
O     12.800001    19.060001    14.520000
O     11.960001    17.240002    15.890001
H     10.960001    20.040001    16.900002
O     18.150002    17.340000    19.090000
S     19.100000    18.610001    19.660000
O     18.790001    18.630001    21.110001
O     20.480001    18.300001    19.170000
O     18.420002    19.640001    18.830002
H     18.100000    16.639999    19.810001
O     11.320001    24.230001    11.680001
S     12.250000    24.910002    10.440001
O     13.640001    24.370001    10.410000
O     11.410000    24.460001     9.290000
O     12.110001    26.370001    10.670000
H     11.790000    23.400002    11.980000
