177
MATCHED 3H_R_T3_HSO3_HHS19_H3O0 t=2200.0 HSO=3 HHS=19 H3O=0
N     17.500002    16.550001    19.590000
C     16.090000    16.980001    19.560001
C     15.170001    15.860001    20.050001
C     15.770000    18.310001    20.190001
O     14.600000    18.960001    19.900002
N     16.750000    18.910000    20.960003
C     16.630001    20.310001    21.350000
C     15.940001    20.420000    22.700003
C     17.970001    21.000002    21.370001
O     19.010002    20.340002    21.960001
O     18.050001    22.369999    21.350000
H     17.640001    15.690001    19.100000
H     18.130001    17.220001    19.170000
H     15.880001    17.140001    18.500002
H     17.610001    18.500002    21.280001
H     16.020000    20.830002    20.620001
H     17.280001    22.840002    21.060001
H     15.360001    14.990001    19.440001
H     14.170000    16.230000    19.820002
H     15.250001    15.640001    21.119999
H     15.890001    21.420002    23.140001
H     16.450001    19.860001    23.480000
H     14.890001    20.120001    22.690001
H     17.850000    16.380001    20.520000
H     14.040001    18.410000    19.370001
H     19.610001    20.880001    22.440002
O     14.020000    17.460001    22.940002
S     12.370001    17.420002    23.040001
O     12.020000    16.990002    24.390001
O     12.140001    18.740002    22.440002
O     12.210001    16.220001    21.920002
H     14.250001    17.830002    23.810001
H     11.590000    15.530001    22.210003
O     15.600000    13.670001    14.910001
S     14.350000    13.880000    15.960001
O     14.290000    12.590000    16.660002
O     14.570000    15.160000    16.650002
O     13.070001    14.070001    14.950001
H     15.900001    12.750001    15.010000
H     12.350000    13.500000    15.290001
O     14.690001    12.730000    21.310001
S     13.110001    12.650002    20.840000
O     12.470001    12.540001    22.150002
O     12.870001    13.820001    20.000000
O     12.710000    11.290001    19.990002
H     14.690001    12.670001    22.280003
H     12.340001    11.560000    19.130001
O     19.770000    13.510000    21.570000
S     18.420002    12.570001    21.450003
O     17.420002    13.570002    21.080000
O     18.680000    11.220001    20.930002
O     18.090002    12.370001    23.050001
H     20.410002    12.980001    21.070002
H     17.690001    11.530000    23.330002
O     13.840000    21.600000    16.420000
S     15.370001    21.980001    16.880001
O     15.600000    21.460001    18.240002
O     16.340000    21.320002    15.990001
O     15.730000    23.570002    16.680000
H     13.250000    21.390001    17.170002
H     16.040001    23.930000    17.530001
O     17.810001    21.480000    27.290001
S     18.870001    21.020000    26.120003
O     18.450001    21.540001    24.820002
O     20.190001    21.170002    26.730001
O     18.760000    19.390001    25.920000
H     17.330000    22.299999    27.060001
H     19.170000    19.110001    25.080002
O     14.880000    19.530001    14.160000
S     14.250001    18.740002    15.450001
O     15.120001    18.730001    16.630001
O     12.860001    19.180000    15.580001
O     14.010000    17.260000    14.770001
H     15.850000    19.620001    14.060000
H     13.080001    16.990002    14.700001
O     11.730001    23.310001    20.220001
S     12.070000    21.700001    20.120001
O     12.100000    21.400002    18.690001
O     13.210001    21.240002    20.930002
O     10.710001    21.070002    20.790001
H     12.470001    23.810001    19.850002
H     11.010000    20.490000    21.520002
O     22.690001    15.820000    20.940001
S     21.850002    17.040001    20.230000
O     20.520000    16.500000    19.940001
O     22.090000    18.240002    21.030003
O     22.720001    17.330000    18.860001
H     22.910002    16.190001    21.820002
H     22.920000    18.280001    18.940001
O     10.430001    18.840000    18.740002
S     11.080000    17.330000    18.860001
O     12.340001    17.840000    19.410002
O     10.270000    16.360001    19.590000
O     11.470001    16.730001    17.380001
H      9.670001    18.890001    19.350000
H     11.510000    15.760001    17.410000
O     23.340000    21.350000    25.150002
S     22.560001    20.160000    24.320002
O     22.420002    19.040001    25.250000
O     21.420002    20.840000    23.680000
O     23.640001    19.880001    23.110001
H     23.300001    21.220001    26.120003
H     23.690002    18.910000    23.040001
O     11.410000    24.040001    23.730001
S     13.000001    24.410002    23.930000
O     13.190001    25.670002    23.210001
O     13.500000    24.280003    25.300003
O     13.630000    23.210001    22.980001
H     11.010000    24.920002    23.650000
H     14.400001    23.510000    22.460001
O     19.280001    16.900002    15.120001
S     17.640001    17.050001    15.000001
O     17.270000    16.780001    16.390001
O     17.400002    18.170000    14.080001
O     17.230000    15.840001    13.960000
H     19.750002    16.440001    15.830001
H     16.660002    15.280001    14.520000
O     13.150001    21.340000    25.450001
S     11.560000    20.930002    25.600002
O     11.420001    19.680000    26.340000
O     10.910001    22.220001    25.860003
O     11.110001    20.710001    24.030001
H     13.600000    20.670002    25.990002
H     10.540000    19.960001    23.800001
O     15.680000    15.510001    24.250002
S     15.180001    14.730000    25.620001
O     16.180000    14.820002    26.690002
O     13.860001    15.340000    25.730001
O     15.200001    13.190001    25.030001
H     16.550001    15.900001    24.440001
H     15.830001    12.600001    25.490000
O     16.120001    25.960003    25.010002
S     17.110001    24.740002    24.500000
O     18.040001    24.280003    25.540001
O     16.280001    23.670002    23.950003
O     18.010002    25.300003    23.240002
H     16.290001    26.380001    25.870001
H     18.860001    25.710001    23.490002
O     19.790001    23.840000    19.430000
S     21.140001    24.340000    20.220001
O     22.200001    24.660000    19.270000
O     20.490000    25.130001    21.270000
O     21.280001    22.940002    21.070002
H     20.080002    23.580000    18.540001
H     22.180002    22.600000    21.180000
O     20.870001    20.240002    18.520000
S     19.500000    19.690001    17.780001
O     19.360001    20.010002    16.360001
O     19.040001    18.530001    18.540001
O     18.470001    20.840000    18.360001
H     21.660002    20.380001    17.950001
H     18.170000    21.200001    17.510000
O     18.330000    13.580000    15.770000
S     18.420002    13.300000    17.400002
O     19.110001    12.040001    17.700001
O     18.990000    14.530001    17.940001
O     16.980001    13.560000    18.150002
H     18.810001    13.020000    15.130001
H     16.520000    12.720001    18.350000
O     16.520000    24.750002    19.070000
S     15.320001    24.630001    20.260000
O     15.490000    23.300001    20.920000
O     15.460001    25.800001    21.160002
O     14.010000    24.690001    19.540001
H     17.120001    25.520000    19.280001
O     16.500000    18.010002    27.220001
S     14.910001    18.480000    26.910002
O     14.700001    18.400000    25.440002
O     13.990001    17.580002    27.670002
O     14.690001    19.850002    27.470001
H     17.130001    18.120001    26.450003
O     20.120001    15.730000    23.620003
S     18.900002    16.890001    23.470001
O     18.110001    16.480001    22.270000
O     18.070000    16.770000    24.710003
O     19.780001    18.090002    23.510000
H     20.120001    15.070001    22.860001
