170
MATCHED 3H_R_T1_HSO3_HHS18_H3O0 t=280.0 HSO=3 HHS=18 H3O=0
N     17.260000    20.650002    17.280001
C     16.920000    20.350000    15.880001
C     17.670000    19.110001    15.400001
C     15.420000    20.160000    15.770000
O     14.720001    20.680000    14.710001
N     14.720001    19.290001    16.570000
C     13.330001    18.940001    16.330002
C     12.900001    17.810001    17.270000
C     12.420001    20.130001    16.480001
O     11.490001    20.250000    15.470000
O     12.650002    21.170002    17.330000
H     18.140001    21.130001    17.140001
H     16.560001    21.130001    17.830002
H     16.960001    21.250000    15.270000
H     15.230001    18.800001    17.290001
H     13.280001    18.630001    15.280001
H     13.350000    20.970001    17.930000
H     17.640001    18.190001    15.990001
H     18.760000    19.130001    15.380001
H     17.500002    18.840000    14.360001
H     11.910001    17.460001    16.990002
H     12.920000    17.960001    18.350000
H     13.500000    16.910002    17.090000
H     17.500002    19.870001    17.870001
H     15.290001    21.010000    14.030001
H     10.870000    20.900002    15.750000
O     13.510000    14.130001    20.320000
S     12.440001    13.690001    19.139999
O     11.510000    12.760000    19.810001
O     12.010001    14.910001    18.450001
O     13.380001    12.810000    18.120001
H     13.030001    14.280001    21.150000
H     13.200001    11.850000    18.160002
O     17.500002    16.990002    20.040001
S     16.080000    17.810001    20.020000
O     16.090000    18.770000    21.130001
O     16.210001    18.310001    18.640001
O     14.950001    16.660002    20.330000
H     18.260000    17.270000    20.580002
H     14.460001    16.810001    21.150000
O     11.240001    19.530001    19.860001
S      9.870001    20.120001    20.559999
O     10.040001    19.880001    21.990002
O      9.690001    21.510000    20.130001
O      8.550000    19.280001    20.020000
H     12.000000    19.540001    20.470001
H      8.180000    19.820002    19.300001
O     17.790001    25.810001    16.350000
S     16.880001    24.780003    17.260000
O     15.690001    25.410002    17.840000
O     16.610001    23.640001    16.370001
O     17.770000    24.040001    18.440001
H     17.380001    26.670000    16.150002
H     17.400002    24.110001    19.330002
O     17.320002    14.630001    16.170002
S     16.020000    15.170001    17.040001
O     16.210001    14.870001    18.460001
O     16.000000    16.560001    16.560001
O     14.710001    14.550000    16.260000
H     17.850000    13.950001    16.620001
H     14.250001    14.060000    16.960001
O     11.230000    23.790001    21.639999
S     10.720000    24.820002    20.459999
O     10.900001    26.000002    21.310001
O     11.350001    24.460001    19.190002
O      9.100000    24.570000    20.600002
H     12.000000    23.230001    21.430000
H      8.760000    24.290001    19.730000
O     21.830002    21.930000    16.790001
S     20.590000    22.670002    17.590000
O     19.440001    22.050001    16.920000
O     20.940001    22.440002    18.990000
O     20.770000    24.209999    17.040001
H     22.580002    21.790001    17.390001
H     20.690001    24.860001    17.770000
O      7.450001    21.980001    16.570000
S      8.750001    22.940002    16.860001
O      8.690001    23.850002    18.010002
O      9.900001    22.060001    16.630001
O      8.670000    23.850002    15.490000
H      6.700000    22.250002    17.140001
H      8.650001    24.790001    15.740002
O     14.050001    24.840002    14.390000
S     12.620001    24.110001    14.780001
O     11.640000    25.030001    14.190001
O     12.640000    22.700003    14.400001
O     12.590000    24.270000    16.410000
H     14.630001    24.130001    14.070001
H     11.770000    24.760000    16.630001
O     18.390001    22.860001    21.290001
S     18.940001    21.310001    21.360001
O     18.410000    20.640001    20.180000
O     20.340002    21.380001    21.790001
O     18.090002    20.670002    22.620001
H     19.030001    23.470001    21.709999
H     18.700001    20.459999    23.350000
O     19.000000    15.720000    13.680000
S     19.710001    14.580001    12.720001
O     20.820000    14.060000    13.520001
O     18.880001    13.490001    12.220000
O     20.380001    15.220001    11.360001
H     18.220001    15.310000    14.100000
H     21.340000    15.040001    11.270000
O     23.800001    18.790001    14.410001
S     22.660000    17.750000    13.830000
O     22.970001    17.470001    12.430000
O     22.640001    16.660002    14.820002
O     21.330002    18.690001    14.090000
H     24.520000    18.400000    14.940001
H     20.800001    18.840000    13.290001
O     21.470001    18.720001    17.290001
S     20.280001    17.860001    18.050001
O     20.830002    17.100000    19.170000
O     19.220001    18.870001    18.110001
O     19.870001    16.780001    16.880001
H     22.299999    18.670002    17.790001
H     19.840000    15.900001    17.290001
O     20.700001    24.080002    14.070001
S     19.460001    23.310001    13.310001
O     19.830000    22.740002    12.010001
O     18.630001    22.470001    14.180001
O     18.330000    24.450001    12.950001
H     20.990002    23.560001    14.840001
H     17.440001    24.240000    13.280001
O     13.910000    16.150002    14.140000
S     15.160000    16.470001    13.120001
O     15.660001    17.810001    13.420000
O     16.160000    15.400001    13.280001
O     14.570000    16.380001    11.590000
H     13.730000    15.270000    14.520000
H     15.170001    16.000000    10.910001
O     11.300000    17.330000    12.050000
S     11.880001    18.780001    11.520000
O     12.750001    18.850000    10.350000
O     10.559999    19.410002    11.610001
O     12.840000    19.370001    12.720001
H     11.600000    16.600000    11.480000
H     13.160001    20.270002    12.550001
O     10.090000    17.220001    15.110001
S      8.500000    17.530001    14.790001
O      8.570001    17.940001    13.390001
O      7.620000    16.639999    15.550001
O      8.270000    18.940001    15.620001
H     10.440001    17.070002    14.220000
H      7.900000    19.700001    15.140000
O      7.150001    20.930002    13.980001
S      8.320000    21.700001    13.120001
O      8.100000    23.070002    12.650002
O      9.540001    21.290001    13.810000
O      8.250000    20.840000    11.710000
H      6.470000    21.570000    14.260001
H      9.060000    20.300003    11.680001
O     16.610001    20.710001    12.760000
S     15.940001    22.150002    12.190001
O     16.910002    22.620001    11.160001
O     14.550000    21.730001    11.890000
O     15.770000    23.000002    13.400001
H     17.560001    20.550001    12.480000
O     19.020000    18.360001    12.130001
S     19.790001    19.020000    10.780001
O     21.180000    19.230001    11.270000
O     19.850002    17.970001     9.720000
O     19.130001    20.280001    10.320001
H     18.500002    17.530001    11.910001
O     15.190001    22.150002    18.660000
S     14.470000    21.520002    20.050001
O     14.000001    20.250000    19.430000
O     15.390000    21.470001    21.220001
O     13.310001    22.390001    20.400002
H     14.760000    22.959999    18.250000
