177
MATCHED 3H_R_T4_HSO3_HHS19_H3O0 t=1420.0 HSO=3 HHS=19 H3O=0
N     23.910000    24.470001    18.420002
C     24.450001    23.100002    18.400000
C     25.580002    22.900002    19.410002
C     23.420000    22.040001    18.710001
O     23.590002    20.760002    18.270000
N     22.450001    22.290001    19.670002
C     21.500000    21.300001    20.150002
C     20.710001    21.960001    21.280001
C     20.510002    20.889999    19.080002
O     19.330002    21.540001    18.860001
O     20.510002    19.600000    18.630001
H     23.110001    24.590000    17.810001
H     23.650000    24.770002    19.350000
H     24.840002    22.970001    17.400002
H     22.290001    23.250000    19.920002
H     21.980001    20.430000    20.590000
H     21.170002    19.000000    18.950001
H     26.010000    21.900002    19.450001
H     25.280001    23.059999    20.440002
H     26.400002    23.580000    19.190002
H     19.980001    21.250000    21.660002
H     19.980001    22.710001    20.990002
H     21.320002    22.250002    22.139999
H     24.640003    25.110001    18.160002
H     24.200001    20.590000    17.570002
H     18.740002    21.100002    18.280001
O     19.740002    26.860001    18.360001
S     19.860001    25.220001    18.290001
O     19.000000    24.630001    17.250000
O     21.190002    24.640003    18.520000
O     19.190002    24.690001    19.700001
H     19.300001    27.240002    17.580002
H     18.220001    24.560001    19.650002
O     15.770000    22.310001    17.000000
S     14.240000    21.880001    17.450001
O     14.470000    21.070002    18.650002
O     13.350000    23.040001    17.440001
O     13.720001    20.660000    16.470001
H     15.800000    23.250000    16.760002
H     13.000001    20.710001    15.820000
O     23.470001    23.660002    22.920000
S     22.660000    24.990002    22.380001
O     22.710001    24.720001    20.940001
O     21.430000    24.760000    23.130001
O     23.450001    26.360001    22.870003
H     24.050003    23.860001    23.670002
H     23.670002    26.850002    22.070000
O     15.810001    21.180000    20.930002
S     16.790001    21.570000    22.190001
O     17.820000    22.510002    21.740000
O     15.890001    21.920002    23.290001
O     17.680000    20.230000    22.550001
H     14.970001    21.650002    21.119999
H     17.600000    20.050001    23.510000
O     27.070000    19.250000    15.220001
S     27.420002    19.960001    16.660002
O     26.120003    20.540001    17.030001
O     28.210001    19.040001    17.480000
O     28.350000    21.300001    16.390001
H     27.380001    18.330000    15.090000
H     29.180002    21.140001    16.870001
O     30.600002    19.490002    20.130001
S     29.170000    19.680000    20.920000
O     29.720001    19.870001    22.260000
O     28.180000    20.389999    20.100000
O     28.640001    18.130001    21.030003
H     30.850000    20.150002    19.470001
H     28.090000    17.940001    21.809999
O     25.450001    24.500000    13.410001
S     25.820000    23.800001    14.850000
O     25.760002    24.850002    15.870001
O     25.010002    22.580002    14.960001
O     27.460001    23.670002    14.750000
H     24.810001    24.050003    12.840000
H     27.790001    22.820000    15.080000
O     23.920002    19.500000    15.800000
S     23.850002    17.970001    16.410000
O     23.810001    17.210001    15.150002
O     24.790001    17.840000    17.520000
O     22.290001    18.080002    16.930000
H     24.230001    19.530001    14.880000
H     22.010002    17.180000    17.170002
O     15.440001    26.620003    20.480001
S     15.280001    24.990002    20.400002
O     14.000001    24.670000    19.760000
O     16.490000    24.390001    19.830000
O     15.100001    24.590000    21.990002
H     16.190001    27.070000    20.060001
H     14.420000    23.980000    22.320002
O     17.280001    17.240002    21.720001
S     17.060001    17.560001    20.120001
O     18.140001    18.370001    19.560001
O     16.590000    16.340000    19.450001
O     15.650001    18.400000    20.010002
H     18.150002    17.570002    22.010002
H     15.410002    18.300001    19.070000
O     21.740000    27.570002    15.560001
S     22.630001    26.430000    14.760000
O     23.990002    26.950001    14.800000
O     22.310001    25.250000    15.580001
O     21.980001    26.210001    13.260001
H     21.680002    28.320000    14.960001
H     22.730000    26.190002    12.650002
O     21.870001    20.330000    23.930000
S     21.320002    21.119999    25.260000
O     20.820000    20.070002    26.150000
O     22.200001    22.210003    25.680000
O     19.990002    21.890001    24.660000
H     21.709999    19.380001    24.030001
H     19.230001    21.530001    25.160000
O     24.550001    20.720001    21.550003
S     25.030001    19.150002    21.610001
O     25.260000    18.840000    20.190001
O     26.120003    19.120001    22.590000
O     23.740002    18.360001    22.250002
H     25.160000    21.330002    22.000000
H     23.430002    17.730001    21.580000
O     30.160000    24.540003    20.170002
S     29.940002    24.030001    21.720001
O     30.210001    22.620001    22.040001
O     30.120001    25.120001    22.680000
O     28.310001    24.270000    21.639999
H     31.060001    24.300001    19.850002
H     27.980001    23.490002    22.130001
O     21.380001    29.430000    19.020000
S     21.700001    28.780001    20.500002
O     22.310001    27.450001    20.450001
O     22.430000    29.800003    21.250000
O     20.300003    28.630001    21.360001
H     21.620003    28.780001    18.340000
H     20.040001    27.710001    21.520002
O     18.830002    18.440001    15.750000
S     17.550001    19.490002    15.790001
O     16.440001    18.630001    15.370001
O     17.880001    20.080002    17.090000
O     17.970001    20.459999    14.530001
H     18.450001    17.570002    15.960001
H     17.220001    20.800001    14.010000
O     19.770000    22.280003    15.900001
S     21.200001    22.040001    15.120001
O     21.180000    22.480001    13.720001
O     22.139999    22.400000    16.180000
O     21.130001    20.410002    15.330001
H     19.460001    23.150002    15.590000
H     21.360001    19.940001    14.510001
O     30.240002    25.690001    16.190001
S     28.920002    25.600002    17.170002
O     28.130001    26.590002    16.430000
O     28.490002    24.260002    17.580002
O     29.570004    26.620003    18.290001
H     30.570002    24.790001    16.040001
H     29.340002    26.380001    19.200001
O     25.290001    28.330002    21.390001
S     26.390001    27.140003    21.090002
O     25.700001    25.860003    20.900002
O     27.430000    27.520000    20.130001
O     26.740000    26.960001    22.690001
H     25.160000    28.810001    20.550001
H     27.680000    27.120001    22.880001
O     25.940001    23.800001    24.120003
S     26.430000    22.190001    24.070000
O     27.620001    22.200001    24.960001
O     25.240002    21.390001    24.490002
O     26.650002    22.110003    22.600000
H     26.700001    24.310001    24.510002
O     22.690001    15.650001    21.090002
S     21.650002    16.520000    20.080002
O     20.380001    16.560001    20.850000
O     22.450001    17.760002    19.850002
O     21.540001    15.720000    18.830002
H     22.900002    14.770001    20.660000
O     23.650000    29.150002    16.890001
S     24.940002    28.570002    17.800001
O     25.110001    29.520000    18.940001
O     24.660000    27.120001    17.990002
O     26.060001    28.900002    16.880001
H     24.120003    29.440002    16.060001
