170
MATCHED 3H_R_T3_HSO3_HHS18_H3O0 t=2160.0 HSO=3 HHS=18 H3O=0
N     18.040001    16.670000    19.630001
C     16.630001    17.080000    19.730000
C     15.900001    16.100002    20.660000
C     16.330002    18.490002    20.160000
O     15.230001    19.200001    19.760000
N     17.070002    19.150002    21.119999
C     16.810001    20.470001    21.639999
C     15.960001    20.450001    22.920000
C     18.100000    21.210001    21.860001
O     19.160002    20.420000    22.230000
O     18.210001    22.540001    22.200001
H     18.510000    17.290001    18.990000
H     18.540001    16.650002    20.510002
H     16.240002    17.020000    18.710001
H     17.730001    18.550001    21.610001
H     16.300001    21.110001    20.920000
H     17.470001    23.100002    22.030001
H     15.990001    15.080000    20.300003
H     14.820002    16.250002    20.670002
H     16.090000    16.320002    21.709999
H     15.750000    21.490002    23.160002
H     16.450001    20.040001    23.810001
H     14.930000    20.120001    22.770002
H     18.130001    15.710001    19.320000
H     14.590001    18.750002    19.230001
H     19.790001    20.900002    22.740002
O     12.820001    19.300001    23.760002
S     11.760000    18.050001    23.890001
O     11.750001    17.510000    25.250000
O     10.680000    18.700001    23.140001
O     12.330000    17.010000    22.740002
H     13.290001    19.390001    24.610003
H     12.510000    16.140001    23.130001
O     15.740002    13.970001    15.540000
S     14.760000    14.010000    16.860001
O     14.670001    12.600001    17.220001
O     15.090000    14.980000    17.910002
O     13.430000    14.500000    16.020000
H     16.650002    13.840000    15.880001
H     12.730000    13.830000    16.070002
O     13.870001    10.740000    21.500000
S     13.650000    12.160001    20.690001
O     12.520000    12.810000    21.370001
O     14.940001    12.770000    20.340002
O     12.980001    11.680001    19.260002
H     14.710001    10.790000    21.980001
H     12.180000    12.200001    19.070000
O     20.470001    13.820001    21.830002
S     18.970001    13.160001    21.920002
O     17.940001    14.080001    21.430000
O     18.950001    11.810001    21.350000
O     18.210001    13.030001    23.380001
H     21.140001    13.180000    21.520002
H     18.150002    12.090001    23.610001
O     14.600000    22.160000    15.330001
S     15.410002    22.570002    16.700001
O     14.990001    21.580000    17.700001
O     16.820000    22.750000    16.350000
O     15.130001    24.150002    17.070002
H     14.140000    22.930002    14.950001
H     14.860001    24.220001    18.000000
O     19.760000    19.200001    26.639999
S     18.840000    20.550001    26.780003
O     19.590000    21.700001    27.280003
O     17.900002    20.530003    25.650002
O     17.850000    20.180000    28.040001
H     19.690001    18.790001    25.760002
H     16.930000    20.340002    27.750000
O     14.140000    19.280001    14.610001
S     14.010000    18.190001    15.840001
O     15.030001    18.450001    16.860001
O     12.600001    18.030001    16.210001
O     14.580001    16.810001    15.150002
H     13.400001    19.910000    14.650001
H     13.870001    16.150002    15.230001
O     12.010001    22.780001    19.960001
S     12.410001    21.380001    20.740002
O     12.690001    20.459999    19.630001
O     13.350000    21.800001    21.790001
O     10.990001    20.870001    21.390001
H     12.790001    23.370001    19.970001
H     11.170001    20.060001    21.890001
O     23.240002    16.240002    20.780001
S     22.080002    17.390001    20.559999
O     20.840000    16.840002    20.030001
O     22.120001    18.300001    21.720001
O     22.840002    18.220001    19.360001
H     23.640001    16.460001    21.639999
H     22.700003    19.190002    19.350000
O     10.520000    17.770000    19.860001
S     11.610001    16.630001    19.400002
O     12.920000    17.300001    19.350000
O     11.400002    15.510001    20.320000
O     11.370001    15.870001    17.960001
H      9.860001    17.710001    19.150002
H     11.250000    14.910001    17.820000
O     22.460001    23.220001    24.310001
S     21.930000    21.660002    24.440001
O     22.320002    21.090002    25.730001
O     20.480001    21.700001    24.200001
O     22.290001    20.710001    23.150002
H     23.230001    23.420000    24.860001
H     22.420002    19.780001    23.400002
O     19.310001    15.980000    15.500001
S     18.380001    17.340000    15.500001
O     17.720001    17.180000    16.800001
O     19.200001    18.480000    15.060000
O     17.500002    17.180000    14.120001
H     20.230000    16.250002    15.300001
H     16.570000    16.950001    14.280001
O     13.450001    21.900002    25.750000
S     12.200001    22.000000    26.820002
O     12.700001    21.410000    28.060001
O     11.910001    23.430002    26.680002
O     11.050000    21.240002    25.910000
H     14.160000    21.390001    26.180000
H     10.660001    20.510002    26.430000
O     15.720000    15.710001    24.370001
S     14.890001    14.460001    25.050001
O     15.690001    13.570002    25.890003
O     13.670001    15.160000    25.470001
O     14.250001    13.590001    23.810001
H     16.660002    15.870001    24.590000
H     14.450001    12.670001    24.030001
O     15.710001    25.380001    25.650002
S     17.280001    25.090000    25.290001
O     17.760002    25.130001    26.670000
O     17.340000    23.760002    24.660000
O     17.980001    26.340000    24.470001
H     15.130001    24.660000    25.340002
H     18.370001    25.870001    23.720001
O     20.310001    24.890001    19.770000
S     21.100002    24.640003    21.200001
O     22.400000    25.310001    21.150000
O     19.880001    24.970001    21.950001
O     21.170002    23.000002    21.340000
H     20.889999    25.320000    19.120001
H     22.100000    22.720001    21.410000
O     19.620001    21.680002    18.810001
S     19.480001    20.240002    18.010002
O     20.370003    20.320000    16.850000
O     19.330002    19.100000    18.920000
O     17.960001    20.300003    17.390001
H     20.540001    21.980001    18.690001
H     17.970001    20.500002    16.440001
O     18.190001    13.380001    16.360001
S     18.840000    13.210001    17.860001
O     19.360001    11.880001    18.170000
O     19.490002    14.450001    18.320002
O     17.500002    13.530001    18.760000
H     18.450001    12.700001    15.720000
H     17.270000    12.810000    19.380001
O     16.760002    24.390001    19.800001
S     15.470000    24.540003    20.889999
O     15.680000    23.630001    22.050001
O     15.420000    25.960003    21.330002
O     14.310001    24.180002    20.020000
H     17.150000    25.300003    19.670002
O     15.940001    17.530001    27.350002
S     14.660001    18.630001    27.180002
O     14.730000    19.120001    25.780001
O     13.650000    17.670000    27.710001
O     15.140000    19.660000    28.150002
H     16.430000    17.550001    26.480003
O     19.190002    15.890001    24.500000
S     18.830002    17.390001    23.810001
O     18.810001    17.140001    22.340002
O     17.580002    17.880001    24.450001
O     20.060001    18.110001    24.230001
H     18.830002    15.160000    23.920002
