177
MATCHED 3H_R_T1_HSO3_HHS19_H3O0 t=460.0 HSO=3 HHS=19 H3O=0
N     17.150000    20.700001    17.270000
C     16.970001    20.490000    15.820000
C     18.000000    19.490002    15.290001
C     15.620001    19.980001    15.390000
O     15.200001    20.200001    14.100000
N     14.780001    19.450001    16.350000
C     13.630000    18.690001    15.910001
C     13.280001    17.550001    16.860001
C     12.470001    19.620001    15.640001
O     12.260000    20.010002    14.340000
O     11.690001    20.110001    16.660002
H     17.889999    21.320002    17.540001
H     16.360001    21.270000    17.530001
H     17.150000    21.400002    15.260000
H     14.860001    19.430000    17.360001
H     13.860001    18.150002    14.990001
H     12.230000    20.110001    17.440001
H     17.910002    18.520000    15.790001
H     18.960001    19.820002    15.710001
H     18.150002    19.380001    14.220000
H     12.390001    17.050001    16.470001
H     12.880001    17.840000    17.830002
H     14.030001    16.770000    17.000000
H     17.230000    19.860001    17.830002
H     15.790001    20.559999    13.460001
H     11.440001    20.470001    14.250001
O     12.820001    14.900002    19.430000
S     13.420000    13.480000    20.000000
O     14.150001    13.010001    18.820002
O     13.950001    13.540001    21.360001
O     12.160001    12.480000    20.330000
H     13.420000    15.580001    19.780001
H     12.040001    11.840000    19.610001
O     17.340000    16.940001    20.500002
S     15.870001    17.520000    20.020000
O     16.150002    18.500002    18.960001
O     14.920001    16.410000    19.990002
O     15.230001    18.200001    21.370001
H     17.510000    15.980000    20.420000
H     14.920001    19.110001    21.270000
O     10.300001    19.350000    19.750002
S      9.130000    20.500002    19.920002
O      8.910000    20.870001    21.320002
O      9.640000    21.350000    18.840000
O      7.810000    19.710001    19.350000
H     10.810001    19.390001    20.580002
H      7.040000    20.120001    19.770000
O     17.710001    24.150002    18.430000
S     16.990002    24.950001    17.190001
O     16.630001    23.720001    16.480001
O     15.890001    25.870001    17.530001
O     18.350000    25.680000    16.620001
H     17.480000    24.390001    19.350000
H     18.620001    25.370003    15.740002
O     13.280001    24.110001    11.110001
S     11.860001    23.450001    11.620001
O     10.940001    22.860001    10.640000
O     12.100000    22.760000    12.890000
O     11.080000    24.830000    12.070000
H     13.840000    23.350000    11.320001
H     10.210000    24.990002    11.670000
O     17.510000    14.640001    15.580001
S     16.700001    15.090000    16.940001
O     17.490002    14.510001    18.030001
O     16.450001    16.530001    16.960001
O     15.210000    14.480000    16.650002
H     18.230001    14.050001    15.890001
H     14.950001    13.640001    17.070002
O     21.920002    21.520002    16.340000
S     21.000002    22.200001    17.520000
O     19.740002    21.450003    17.510000
O     21.870001    22.290001    18.700001
O     20.410002    23.710001    17.200001
H     22.770002    21.119999    16.590000
H     20.670002    24.350002    17.880001
O      9.610001    14.570000    20.130001
S      9.670001    16.210001    20.020000
O      8.350000    16.710001    20.410002
O     10.880001    16.580002    20.770000
O      9.990001    16.520000    18.440001
H      8.930000    14.240000    20.750000
H      9.380000    17.120001    17.970001
O     11.590000    23.440001    15.660001
S     12.960000    23.630001    16.550001
O     13.460001    22.270000    16.350000
O     13.510000    24.910002    16.120001
O     12.070000    24.010000    17.880001
H     11.760000    23.530003    14.700001
H     12.350000    23.410000    18.600002
O     19.460001    22.940002    20.540001
S     18.410000    21.809999    21.130001
O     17.960001    21.160002    19.910000
O     19.150002    21.150000    22.210003
O     17.300001    22.800003    21.850002
H     20.340002    22.760000    20.910000
H     16.940001    22.600000    22.730000
O     11.910001    12.170000    15.460001
S     11.010000    13.540001    15.590000
O     12.040001    14.570000    15.790001
O     10.230000    13.340001    14.360001
O     10.040001    13.530001    16.920000
H     11.820001    11.570001    14.690001
H     10.060000    14.300001    17.520000
O     22.390001    18.810001    14.860001
S     21.370001    18.270000    13.680000
O     22.180002    17.730001    12.590000
O     20.370003    17.510000    14.430000
O     20.910000    19.770000    13.180000
H     22.380001    18.490002    15.780001
H     20.910000    19.760000    12.210001
O     20.840000    18.490002    19.980001
S     20.250000    18.140001    18.480000
O     18.970001    18.830002    18.380001
O     21.320002    18.650002    17.620001
O     20.170002    16.500000    18.460001
H     21.639999    19.020000    19.810001
H     20.660000    16.150002    17.700001
O     21.210001    23.470001    14.210001
S     19.760000    23.140001    13.500000
O     20.120001    23.020000    12.080001
O     19.170000    22.040001    14.270000
O     18.890001    24.530001    13.710001
H     21.370001    22.780001    14.870001
H     18.550001    24.870003    12.870001
O     14.550000    15.610001    13.960000
S     15.940001    16.140001    13.260001
O     16.710001    17.150000    13.990001
O     16.660002    15.220001    12.370001
O     15.060000    16.940001    12.120000
H     14.710001    14.690001    14.230001
H     15.210000    16.570000    11.240001
O      8.180000    19.360001    16.120001
S      6.780000    18.520000    16.350000
O      6.180000    18.390001    15.020000
O      7.190001    17.300001    17.040001
O      5.690000    19.350000    17.270000
H      8.440001    19.290001    15.190001
H      5.470000    18.700001    17.960001
O     11.520000    17.600000    10.960001
S     11.750001    19.190002    10.620001
O     13.060001    19.530001    11.200000
O     11.400002    19.670002     9.280001
O     10.740000    19.900002    11.710000
H     11.630001    16.900002    10.290001
H      9.960001    20.290001    11.290001
O     11.710000    16.860001    13.950001
S     10.060000    16.870001    13.870001
O      9.700001    18.270000    14.100000
O      9.590000    15.930000    12.850000
O      9.710001    16.300001    15.380001
H     12.230000    16.260000    13.390001
H      8.850000    15.860001    15.430001
O      7.830000    23.070002    13.660001
S      8.490001    21.620003    13.240002
O      8.500000    21.880001    11.800001
O      9.620001    21.300001    14.120001
O      7.550001    20.290001    13.500000
H      8.310000    23.450001    14.420000
H      7.200000    19.890001    12.680000
O     17.080000    21.390001    12.480000
S     16.080000    22.670002    12.030001
O     16.870001    23.780001    11.420001
O     15.190001    22.120001    10.960001
O     15.290001    22.889999    13.270000
H     17.980001    21.410000    12.050000
O     18.740002    19.160002    11.250000
S     19.490002    19.890001     9.920000
O     20.910000    19.720001    10.340000
O     19.130001    19.070000     8.730000
O     19.170000    21.340000     9.920000
H     18.050001    18.570002    10.840001
O     12.740001    22.139999    19.640001
S     14.080001    21.110001    19.750002
O     13.560000    19.860001    19.130001
O     14.940001    21.780003    18.730001
O     14.440001    21.060001    21.190002
H     12.320002    22.220001    20.550001
