177
MATCHED 3H_R_C1_HSO3_HHS19_H3O0_poolsmall t=320.0 HSO=3 HHS=19 H3O=0
N     18.950001    22.340002    22.880001
C     18.710001    22.470001    21.430000
C     18.730001    23.900002    20.900002
C     19.710001    21.650002    20.650002
O     21.010000    22.080002    20.610001
N     19.410002    20.440002    20.060001
C     18.210001    19.650002    20.190001
C     17.130001    20.040001    19.180000
C     18.470001    18.170000    20.100000
O     18.040001    17.450001    19.010002
O     18.950001    17.470001    21.170002
H     19.810001    22.760000    23.220001
H     18.220001    22.820000    23.370001
H     17.720001    22.040001    21.300001
H     20.220001    20.100000    19.550001
H     17.790001    19.710001    21.190002
H     19.350000    17.980001    21.860001
H     19.740002    24.300001    20.850000
H     18.180000    24.710003    21.400002
H     18.340000    23.920002    19.880001
H     17.390001    19.920002    18.120001
H     16.800001    21.060001    19.370001
H     16.250002    19.390001    19.230001
H     18.830002    21.430000    23.300001
H     21.340000    22.750000    21.190002
H     18.010002    16.530001    19.190002
O     19.890001    20.680000    27.330000
S     19.900002    22.299999    27.030001
O     21.000002    22.940002    27.760000
O     19.700001    22.530001    25.590000
O     18.420002    22.840002    27.520000
H     19.960001    20.020000    26.620003
H     18.380001    23.280001    28.380001
O     16.880001    26.480003    25.140001
S     18.440001    25.930002    25.170002
O     18.900002    25.520000    26.500000
O     18.710001    25.220001    23.920002
O     19.290001    27.310001    24.890001
H     16.360001    26.390001    25.950001
H     19.850002    27.140003    24.110001
O     23.820002    22.160000    25.170002
S     23.150002    20.740002    24.670000
O     22.780001    20.000000    25.880001
O     22.110003    21.080000    23.700001
O     24.500000    19.990002    24.080002
H     23.340000    23.000002    25.060001
H     24.340000    19.130001    23.640001
O     23.170002    16.710001    20.380001
S     23.180000    18.030001    21.350000
O     21.780003    18.420002    21.570000
O     24.150002    17.880001    22.440002
O     23.570002    19.420002    20.559999
H     23.610001    15.910001    20.720001
H     24.310001    19.960001    20.880001
O     13.750001    20.520000    20.650002
S     14.350000    20.590000    22.190001
O     15.800000    20.740002    21.980001
O     13.470001    21.550003    22.840002
O     14.160000    18.970001    22.430000
H     13.120001    21.240002    20.450001
H     13.440001    18.820002    23.070002
O     18.860001    18.740002    15.470000
S     19.270000    18.800001    13.880000
O     20.540001    19.530001    14.010000
O     19.190002    17.430000    13.380001
O     18.200001    19.760000    13.060001
H     18.730001    17.790001    15.640001
H     18.690001    20.290001    12.410001
O     23.410000    18.570002    17.600000
S     21.809999    18.600002    17.230000
O     21.610001    17.370001    16.460001
O     21.119999    19.020000    18.460001
O     21.700001    20.050001    16.460001
H     23.880001    18.970001    16.840002
H     21.100002    19.920002    15.700001
O     21.570000    27.180002    19.110001
S     22.760000    26.049999    19.230001
O     23.980000    26.460001    19.930002
O     22.090000    24.840002    19.700001
O     23.300001    25.790003    17.700001
H     21.639999    27.660000    19.950001
H     24.270000    25.840000    17.700001
O     13.860001    16.580002    15.420000
S     15.500001    16.590000    15.450001
O     16.230000    17.650002    16.150002
O     15.800000    15.180001    15.680000
O     15.550001    16.910002    13.840000
H     13.580000    17.210001    16.100002
H     15.840001    16.130001    13.340001
O     22.260000    14.510001    22.550001
S     20.670002    14.680000    22.970001
O     20.480001    16.130001    22.910002
O     19.780001    13.830000    22.180002
O     20.670002    14.270000    24.560001
H     22.210003    13.690001    22.030001
H     20.090000    13.510000    24.730000
O     13.300000    24.510002    21.130001
S     14.870001    24.920002    21.430000
O     15.560001    23.700001    21.850002
O     15.460001    25.880001    20.500002
O     14.690001    25.600002    22.920000
H     13.090000    24.790001    20.230000
H     14.650001    26.570000    22.860001
O     23.770000    22.710001    21.460001
S     24.980001    22.610001    20.350000
O     24.400002    22.240002    19.050001
O     25.890003    23.740002    20.540001
O     25.710001    21.190002    20.750000
H     23.750000    23.570002    21.910002
H     26.660002    21.360001    20.830002
O     14.080001    22.860001    25.150002
S     15.660001    23.000002    25.600002
O     16.570000    23.040001    24.450001
O     15.720000    24.070000    26.600000
O     15.840001    21.620003    26.480003
H     13.990001    22.780001    24.190002
H     16.620001    21.180000    26.110001
O     20.730001    14.490002    16.310001
S     19.170000    14.560001    15.790001
O     18.280001    13.410001    15.980000
O     18.660000    15.910001    16.049999
O     19.510000    14.520000    14.170000
H     20.800001    13.970001    17.120001
H     19.250000    15.340000    13.710001
O     19.760000    29.480001    19.770000
S     18.690001    28.910000    20.880001
O     18.050001    27.830002    20.130001
O     19.540001    28.650002    22.050001
O     17.450001    29.930000    21.220001
H     19.540001    30.410002    19.590000
H     16.540001    29.600000    21.160002
O     19.580000    24.320002    16.049999
S     19.630001    22.790001    16.650002
O     18.710001    22.520000    17.750000
O     19.880001    21.890001    15.510001
O     21.100002    22.900002    17.390001
H     18.650002    24.440001    15.770000
H     21.600000    22.190001    16.950001
O     13.580000    17.780001    17.870001
S     13.460001    16.500000    18.910000
O     12.800001    16.980001    20.130001
O     13.090000    15.390000    18.030001
O     15.080000    16.500000    19.220001
H     13.100000    18.560001    18.180000
H     15.460001    15.760001    18.710001
O     17.960001    26.890001    15.540000
S     17.010000    26.470001    16.820000
O     16.020000    27.430000    17.330000
O     16.350000    25.200003    16.480001
O     18.040001    26.040001    18.030001
H     17.990002    27.830002    15.270000
H     17.920000    26.700001    18.740002
O     15.420000    23.240002    18.120001
S     14.320001    22.150002    17.560001
O     15.080000    20.990002    17.090000
O     13.440001    22.139999    18.730001
O     13.310001    22.820000    16.440001
H     15.620001    23.810001    17.360001
H     13.310001    22.260000    15.640001
O     16.500000    14.180001    20.690001
S     17.430000    13.910000    19.310001
O     18.530001    14.910001    19.390001
O     17.840000    12.470001    19.410002
O     16.440001    14.330001    18.280001
H     17.070002    14.760000    21.280001
O     17.480000    17.830002    23.930000
S     18.460001    19.120001    24.420002
O     17.660000    20.320000    24.790001
O     19.420002    18.580000    25.430002
O     19.200001    19.540001    23.200001
H     17.960001    16.960001    23.910000
O     21.520002    26.410000    23.280001
S     22.160000    24.860001    23.490002
O     23.570002    24.840002    23.000002
O     22.080002    24.520000    24.940002
O     21.140001    24.050003    22.770002
H     22.170000    27.070000    22.889999
