170
MATCHED 3H_R_T2_HSO3_HHS18_H3O0 t=3260.0 HSO=3 HHS=18 H3O=0
N     14.880000    18.890001    24.850002
C     14.720001    17.740000    23.950003
C     15.890001    16.760002    24.070000
C     13.400001    17.010000    23.950003
O     13.140000    16.010000    23.050001
N     12.470001    17.280001    24.930000
C     11.120001    16.750000    24.790001
C     10.610001    16.410000    26.190002
C     10.310000    17.750000    24.010000
O      9.690001    18.740002    24.710003
O      9.970000    17.460001    22.710001
H     15.840001    19.190002    24.860001
H     14.240000    19.600000    24.520000
H     14.720001    18.150002    22.940002
H     12.680000    17.560001    25.870001
H     11.110001    15.830001    24.200001
H      9.520000    18.030001    22.110003
H     15.940001    16.040001    23.240002
H     15.820000    16.130001    24.960001
H     16.880001    17.160000    24.270000
H     10.570001    17.280001    26.850002
H     11.200000    15.620001    26.660002
H      9.590000    16.030001    26.130001
H     14.680000    18.700001    25.820000
H     13.670001    16.020000    22.270000
H      9.980000    19.620001    24.510002
O     17.070002    12.880001    22.120001
S     16.930000    13.570002    20.630001
O     17.770000    12.820001    19.690001
O     15.470000    13.500000    20.680000
O     17.380001    15.150002    20.720001
H     17.710001    12.150001    22.040001
H     17.750000    15.510001    19.890001
O      7.500000    23.270000    24.209999
S      8.200001    22.500000    22.930002
O      8.680000    21.150000    23.240002
O      7.190001    22.770002    21.900002
O      9.360001    23.530003    22.369999
H      7.570000    22.710001    24.990002
H     10.160000    22.980001    22.369999
O      7.380000    19.970001    29.010000
S      8.990001    19.700001    28.800001
O      9.420000    18.890001    29.940002
O      8.960000    19.220001    27.420002
O      9.860001    21.100002    28.860001
H      6.980000    19.320000    28.400002
H     10.440001    20.980000    29.630001
O      9.540001    20.680000    19.430000
S      8.330001    19.580000    19.620001
O      7.780001    19.010002    18.390001
O      8.600000    18.690001    20.760002
O      7.260000    20.800001    19.940001
H     10.290001    20.670002    20.060001
H      6.790000    20.780001    20.800001
O     18.260000    12.520000    27.400002
S     17.930000    12.130001    25.830002
O     17.860001    10.710001    25.459999
O     16.990002    13.170000    25.430002
O     19.340002    12.550001    25.100002
H     18.280001    11.680001    27.880001
H     19.890001    11.850000    24.710003
O     12.140001    22.710001    27.100000
S     10.810001    22.880001    26.140001
O     10.850000    24.170000    25.440002
O     10.210000    21.690002    25.520000
O      9.670001    23.380001    27.220001
H     12.710000    21.940001    26.940002
H      9.100000    22.680000    27.590000
O      9.310000    13.820001    26.860001
S      9.270000    12.190001    27.080002
O     10.650001    11.810001    26.760002
O      8.550000    11.870001    28.320000
O      8.430000    11.570001    25.810001
H      8.970000    14.170000    27.710001
H      7.700000    11.040001    26.150000
O     19.360001    15.710001    24.370001
S     20.120001    17.160000    24.200001
O     21.540001    16.820000    24.139999
O     19.400002    18.040001    23.270000
O     19.990002    17.820000    25.700001
H     19.940001    14.950001    24.170000
H     20.840000    18.110001    26.080000
O     12.260000    13.240002    24.850002
S     13.430000    12.540001    23.920002
O     13.920001    11.330000    24.600000
O     12.710000    12.540001    22.650002
O     14.660001    13.630000    23.870001
H     11.730001    12.580000    25.330002
H     15.460001    13.290001    24.310001
O      6.270000    19.060001    24.410002
S      6.270000    17.450001    24.050003
O      7.160000    16.850000    25.050001
O      4.910000    16.920000    24.200001
O      7.110000    17.290001    22.640001
H      6.330000    19.270000    25.350000
H      6.500000    16.830002    22.030001
O     19.320000    17.420002    28.610001
S     18.290001    16.200001    28.190002
O     17.780001    15.390000    29.300001
O     17.510000    16.870001    27.140003
O     19.230001    15.170001    27.320002
H     19.290001    17.550001    29.570004
H     19.090000    14.220000    27.440002
O     15.040001    14.700001    29.420002
S     14.330001    13.990001    28.120001
O     12.950001    13.920001    28.610001
O     14.630001    14.830000    26.950001
O     15.080000    12.540001    27.940002
H     15.190001    15.650001    29.260002
H     14.480000    11.780001    27.920000
O     17.630001    23.040001    22.510002
S     17.270000    21.520002    22.000000
O     16.830002    20.590000    23.050001
O     16.630001    21.630001    20.690001
O     18.620001    20.730001    21.490002
H     17.230000    23.220001    23.380001
H     18.550001    19.770000    21.639999
O     17.160000    19.520000    18.420002
S     15.820000    18.800001    19.050001
O     15.210000    17.920000    18.050001
O     16.110001    18.440001    20.450001
O     14.710001    20.010002    19.150002
H     17.540001    18.960001    17.730001
H     14.310001    20.230000    20.000000
O     10.640000    14.860001    21.800001
S      9.320001    13.890000    21.930000
O      8.200001    14.830000    22.040001
O      9.340000    12.790001    20.950001
O      9.450001    13.300000    23.460003
H     11.210001    14.660001    21.030003
H      9.350000    12.340001    23.570002
O     12.130001    17.750000    31.210001
S     11.510000    16.450001    30.420000
O     10.150002    15.910001    30.490002
O     12.160001    16.790001    29.150002
O     12.440001    15.290001    31.120003
H     11.460000    18.370001    31.530001
H     13.060001    14.850000    30.520000
O     16.520000    23.830002    24.860001
S     14.970001    23.280001    24.900000
O     14.750000    21.830002    24.840002
O     14.160000    24.209999    25.700001
O     14.390000    23.670002    23.410000
H     16.740000    24.330002    25.670002
H     13.650000    23.100002    23.130001
O     18.750002    21.410000    25.430002
S     17.950001    20.750000    26.710003
O     17.080000    19.760000    26.080000
O     18.930000    20.400002    27.740002
O     16.880001    21.750002    27.470001
H     19.670002    21.600000    25.700001
H     16.060001    21.230001    27.580002
O     13.890000    18.040001    27.490002
S     13.230000    19.580000    27.710001
O     14.340000    20.459999    27.240002
O     12.090001    19.520000    26.750002
O     12.820001    19.630001    29.139999
H     13.700001    17.610001    28.370001
O     13.850001    20.570002    21.590002
S     12.380000    20.770000    22.390001
O     12.570001    20.100000    23.710001
O     12.100000    22.230000    22.420002
O     11.330000    20.060001    21.600000
H     14.320001    21.460001    21.530001
O     13.440001    16.580002    20.250000
S     12.960000    15.540000    19.010002
O     12.300000    16.390001    17.970001
O     14.220000    14.920001    18.500002
O     12.040001    14.530001    19.610001
H     13.370000    17.480000    19.810001
