170
MATCHED 3H_R_T4_HSO3_HHS18_H3O0 t=1920.0 HSO=3 HHS=18 H3O=0
N     24.090002    23.570002    18.620001
C     24.500000    22.160000    18.490002
C     25.710001    21.910002    19.390001
C     23.460003    21.110001    18.810001
O     23.580000    19.830000    18.330000
N     22.490002    21.410000    19.750002
C     21.530001    20.350000    19.990002
C     20.660000    20.680000    21.200001
C     20.670002    19.960001    18.810001
O     19.690001    20.860003    18.480000
O     20.559999    18.690001    18.320002
H     23.910000    23.740002    19.600000
H     24.840002    24.150002    18.270000
H     24.770002    22.020000    17.440001
H     22.430000    22.270000    20.280001
H     22.060001    19.440001    20.260000
H     20.930002    18.130001    18.990000
H     25.520000    22.100000    20.450001
H     26.650002    22.420002    19.170000
H     25.950001    20.850000    19.410002
H     19.990002    19.880001    21.500000
H     19.880001    21.420002    21.000002
H     21.230001    20.940001    22.090000
H     23.340000    23.880001    18.030001
H     24.020002    19.710001    17.500002
H     18.940001    20.500002    18.030001
O     20.070002    26.090002    18.360001
S     20.320000    24.660000    17.580002
O     20.140001    24.799999    16.130001
O     21.520002    24.050003    18.160002
O     19.090000    23.930000    18.390001
H     19.230001    26.440001    18.020000
H     18.390001    23.510000    17.860001
O     19.650002    24.160002    21.780003
S     21.190002    24.740002    21.700001
O     22.060001    23.750000    21.060001
O     21.010000    26.049999    21.070002
O     21.510000    24.850002    23.310001
H     18.960001    24.840002    21.730001
H     22.340002    24.450001    23.630001
O     16.650002    23.540001    23.700001
S     17.860001    22.500000    24.120003
O     18.580000    21.730001    23.110001
O     18.790001    23.330002    24.890001
O     17.240002    21.330002    25.100002
H     16.720001    23.580000    22.730000
H     17.400002    21.440001    26.060001
O     20.360001    13.380001    15.580001
S     19.770000    13.730000    17.080000
O     18.490002    13.040000    16.930000
O     20.770000    13.640001    18.150002
O     19.420002    15.340000    17.110001
H     21.330002    13.330001    15.530001
H     18.530001    15.610001    17.380001
O     18.900002    17.560001    26.890001
S     19.290001    17.360001    25.300003
O     18.200001    16.460001    24.900000
O     19.440001    18.680000    24.680002
O     20.730001    16.580002    25.140001
H     19.000000    18.520000    27.000000
H     21.130001    16.950001    24.340000
O     26.960001    18.190001    21.520002
S     25.600002    17.430000    20.980000
O     24.680002    18.540001    20.690001
O     25.960003    16.420000    19.980001
O     24.850002    16.480001    22.100000
H     27.200001    17.950001    22.430000
H     23.890001    16.590000    22.180002
O     24.310001    20.270002    13.580000
S     25.070002    19.260002    14.630001
O     24.820002    19.790001    15.980000
O     24.570000    17.889999    14.420000
O     26.680002    19.450001    14.370001
H     23.680000    19.840000    12.980001
H     27.130001    18.590000    14.250001
O     29.390001    19.870001    18.960001
S     28.490002    19.870001    17.580002
O     27.790001    18.580000    17.690001
O     27.750000    21.100002    17.280001
O     29.720001    19.710001    16.500000
H     29.330002    20.720001    19.430000
H     29.880001    20.470001    15.910001
O     24.350002    22.980001    12.530001
S     24.190002    23.800001    13.950001
O     23.020000    24.680002    13.940001
O     24.560001    22.840002    14.990001
O     25.550001    24.710003    13.810000
H     24.430000    22.020000    12.680000
H     25.389999    25.410002    14.460001
O     22.390001    16.610001    16.460001
S     23.800001    15.920001    16.960001
O     24.060001    15.130001    15.760001
O     24.720001    16.940001    17.490002
O     23.600002    15.020000    18.330000
H     22.200001    16.150002    15.630001
H     23.780001    14.080001    18.190001
O     17.280001    18.890001    22.040001
S     16.460001    20.050001    21.200001
O     15.630001    21.000002    21.940001
O     17.530001    20.300003    20.230000
O     15.430001    19.360001    20.120001
H     17.110001    19.000000    23.000002
H     14.500000    19.590000    20.250000
O     15.910001    24.010000    15.010000
S     16.560001    22.520000    15.270000
O     17.420002    22.180002    14.140000
O     16.940001    22.369999    16.680000
O     15.160000    21.660002    15.140000
H     16.190001    24.360001    14.150001
H     15.170001    21.040001    14.380001
O     17.690001    16.440001    19.530001
S     16.840002    15.430001    20.510002
O     17.510000    15.100001    21.770000
O     15.490000    15.990001    20.370003
O     16.800001    14.080001    19.580000
H     18.290001    16.950001    20.110001
H     16.900002    13.290001    20.150002
O     25.960003    19.910000    23.410000
S     24.590000    20.700001    23.880001
O     24.980001    21.350000    25.130001
O     24.100000    21.170002    22.580002
O     23.650000    19.360001    23.980000
H     26.750002    20.340002    23.800001
H     23.300001    19.340002    24.890001
O     17.750000    18.420002    14.540001
S     17.200001    18.460001    16.090000
O     17.440001    17.120001    16.639999
O     17.850000    19.690001    16.560001
O     15.580001    18.720001    15.980000
H     17.970001    17.550001    14.160000
H     15.140000    17.900002    16.260000
O     19.870001    21.870001    15.510001
S     21.210001    21.200001    14.820002
O     21.480000    21.750002    13.490001
O     22.070000    21.590002    15.940001
O     21.119999    19.560001    14.760000
H     19.380001    22.490002    14.930000
H     20.800001    19.230001    13.900002
O     27.630003    26.660002    16.720001
S     27.730003    25.260000    17.590000
O     28.680000    25.720001    18.600002
O     26.440001    24.620001    17.860001
O     28.490002    24.190002    16.600000
H     26.760002    26.990002    16.430000
H     29.240000    23.770000    17.070002
O     26.020002    27.080002    20.650002
S     25.430002    25.940001    21.680002
O     24.200001    26.380001    22.350002
O     25.400002    24.780003    20.780001
O     26.690002    25.820000    22.730000
H     25.330002    27.730003    20.420000
H     27.010002    24.900000    22.820000
O     28.640001    24.130001    21.200001
S     28.520002    22.720001    22.120001
O     27.420002    23.110001    23.050001
O     28.280001    21.480000    21.320002
O     29.740002    22.790001    22.959999
H     28.730001    23.980000    20.220001
O     22.010002    16.970001    19.920002
S     21.190002    16.370001    21.270000
O     21.880001    16.950001    22.450001
O     19.930002    17.080000    20.910000
O     21.280001    14.890001    21.070002
H     22.580002    16.290001    19.450001
O     22.660000    27.810001    16.500000
S     23.880001    26.960001    17.310001
O     24.130001    25.810001    16.400002
O     24.980001    27.960003    17.300001
O     23.490002    26.430000    18.640001
H     22.000000    28.050001    17.220001
