170
MATCHED 3H_R_C1_HSO3_HHS18_H3O0_poollarge t=160.0 HSO=3 HHS=18 H3O=0
N     20.170002    22.710001    22.170000
C     19.640001    22.040001    20.970001
C     19.520000    22.820000    19.670002
C     20.350000    20.760002    20.610001
O     21.709999    20.640001    20.420000
N     19.720001    19.670002    20.050001
C     18.330000    19.270000    20.080002
C     17.490002    20.010002    19.040001
C     18.260000    17.780001    19.860001
O     18.600002    17.310001    18.610001
O     18.240002    16.830002    20.850000
H     20.520000    21.980001    22.760000
H     20.910000    23.370001    21.970001
H     18.640001    21.840000    21.360001
H     20.310001    18.860001    19.880001
H     17.960001    19.370001    21.100002
H     18.470001    17.180000    21.690002
H     19.160002    22.200001    18.850000
H     20.420000    23.320000    19.300001
H     18.940001    23.730001    19.820002
H     17.930000    20.030001    18.040001
H     17.260000    21.030003    19.360001
H     16.540001    19.520000    18.850000
H     19.510000    23.270000    22.690001
H     22.160000    21.420002    20.710001
H     18.600002    16.370001    18.620001
O     19.770000    20.770000    26.590002
S     20.459999    22.260000    26.490002
O     21.620003    22.310001    27.390001
O     20.640001    22.500000    25.060001
O     19.260002    23.170002    27.160000
H     19.560001    20.340002    25.740002
H     19.660000    24.060001    27.120001
O     17.250000    25.630001    23.330002
S     18.810001    26.170002    23.230001
O     19.030001    27.550001    23.670002
O     19.400002    25.070002    24.010000
O     19.139999    25.660002    21.700001
H     16.700001    26.360001    23.650000
H     19.610001    26.190002    21.040001
O     24.580002    20.820000    23.870001
S     23.040001    20.280001    24.050003
O     22.889999    20.310001    25.510002
O     22.210003    21.000002    23.080002
O     23.140001    18.720001    23.520000
H     24.660000    21.709999    23.480000
H     23.010002    18.010002    24.170000
O     22.680000    16.240002    18.250000
S     22.590000    16.750000    19.810001
O     21.340000    17.500002    19.690001
O     22.850000    15.780001    20.880001
O     23.740002    17.930000    19.800001
H     22.740002    15.270000    18.290001
H     24.090002    18.120001    20.690001
O     13.940001    20.360001    22.050001
S     14.740001    19.070000    22.680000
O     16.030001    19.540001    23.190001
O     13.890000    18.170000    23.470001
O     15.400001    18.280001    21.390001
H     13.020000    20.220001    22.360001
H     15.250001    17.320002    21.410000
O     19.570002    18.730001    14.290000
S     17.930000    18.840000    14.370001
O     17.889999    20.230000    13.900002
O     17.370001    17.730001    13.600000
O     17.270000    18.860001    15.870001
H     19.760000    17.790001    14.130001
H     16.440001    18.370001    16.049999
O     22.840002    19.490002    17.510000
S     21.630001    20.430000    16.890001
O     20.470001    19.570002    17.080000
O     21.970001    21.590002    17.730001
O     21.950001    20.600002    15.290001
H     22.680000    18.570002    17.770000
H     22.030001    21.500000    14.920001
O     20.400002    24.980001    17.420002
S     21.450003    26.030003    18.140001
O     21.380001    27.320002    17.450001
O     20.990002    25.940001    19.530001
O     22.980001    25.440002    18.170000
H     19.980001    25.400002    16.650002
H     23.640001    25.970001    17.690001
O     16.180000    13.950001    15.610001
S     15.150002    15.170001    15.250001
O     15.600000    16.360001    15.970001
O     15.010000    15.100001    13.790001
O     13.630000    14.790001    15.750000
H     16.800001    14.130001    16.340000
H     13.340001    15.500001    16.350000
O     22.210003    14.490002    23.549999
S     20.570002    14.350000    23.490002
O     20.170002    15.090000    24.690001
O     20.160000    14.610001    22.100000
O     20.270002    12.770000    23.840000
H     22.400000    15.110001    22.820000
H     19.660000    12.360001    23.210001
O     14.590001    22.180002    19.960001
S     15.190001    23.370001    20.930002
O     16.390001    22.810001    21.560001
O     15.290001    24.420002    19.920002
O     14.160000    23.960001    22.070000
H     13.690001    22.020000    20.280001
H     14.040001    24.910002    21.860001
O     25.510002    23.280001    18.980001
S     26.090002    21.890001    19.630001
O     27.100000    21.600000    18.610001
O     26.370001    22.000000    21.070002
O     25.000000    20.670002    19.450001
H     25.380001    23.940001    19.690001
H     25.400002    20.210001    18.690001
O     15.670000    23.059999    24.520000
S     16.030001    21.790001    25.510002
O     16.470001    22.770002    26.510000
O     15.010000    20.740002    25.610001
O     17.370001    21.049999    24.900000
H     14.830000    22.959999    24.040001
H     17.210001    20.090000    24.860001
O     15.750000    12.990000    21.520002
S     16.020000    14.230001    22.580002
O     17.320002    14.210001    23.240002
O     15.740002    15.480001    21.860001
O     14.860001    14.190001    23.750000
H     16.610001    12.550001    21.390001
H     14.420000    15.060000    23.810001
O     19.290001    15.380001    13.550000
S     19.810001    15.120001    15.090000
O     18.720001    15.590000    15.950001
O     20.470001    13.810000    15.150002
O     21.060001    16.160000    15.370001
H     18.330000    15.510001    13.610001
H     21.840000    15.610001    15.560001
O     18.350000    27.960003    19.840000
S     16.850000    27.320002    19.630001
O     16.360001    26.920002    20.960003
O     16.130001    28.080002    18.600002
O     17.260000    25.960003    18.800001
H     18.310001    28.910000    19.640001
H     16.670000    25.270002    19.139999
O     13.710001    19.150002    18.210001
S     13.510000    17.520000    18.360001
O     12.680000    16.990002    17.270000
O     14.820002    16.960001    18.690001
O     12.790001    17.560001    19.840000
H     12.940001    19.620001    17.860001
H     11.820001    17.460001    19.840000
O     15.090000    24.190002    16.960001
S     16.210001    23.050001    16.550001
O     16.980001    23.500002    15.390000
O     16.890001    22.700003    17.800001
O     15.550001    21.610001    16.080000
H     15.220001    25.020000    16.480001
H     14.640001    21.750002    15.760001
O     19.950001    14.520000    19.240002
S     18.510000    13.700001    18.900002
O     18.970001    13.000001    17.670000
O     18.230001    12.800001    20.060001
O     17.430000    14.700001    18.700001
H     19.950001    14.640001    20.230000
O     18.260000    17.680000    23.260002
S     19.720001    18.480000    23.590002
O     20.480001    17.790001    22.510002
O     19.440001    19.920002    23.330002
O     20.090000    18.120001    24.990002
H     17.980001    17.180000    24.080002
O     22.270000    24.540003    22.640001
S     23.660002    23.890001    21.940001
O     24.250002    25.070002    21.260002
O     24.510002    23.420000    23.070002
O     23.120001    22.920000    20.940001
H     22.420002    25.510002    22.820000
