177
MATCHED 3H_R_T2_HSO3_HHS19_H3O0 t=3160.0 HSO=3 HHS=19 H3O=0
N     14.050001    19.310001    23.820002
C     14.350000    17.870001    23.720001
C     15.400001    17.470001    24.750002
C     13.040000    17.140001    23.880001
O     12.720001    16.170002    22.970001
N     12.300000    17.200001    25.050001
C     11.020000    16.530001    25.180000
C     10.670000    16.420000    26.660002
C      9.900001    17.230000    24.450001
O      9.580001    18.530001    24.740002
O      9.200000    16.600000    23.450001
H     14.790001    19.910000    23.460003
H     13.230000    19.590000    23.300001
H     14.740001    17.820000    22.700003
H     12.640000    17.740000    25.840000
H     11.110001    15.500001    24.840002
H      8.830000    17.160000    22.780001
H     15.160000    17.540001    25.810001
H     16.260000    18.140001    24.740002
H     15.800000    16.470001    24.580002
H     10.600000    17.380001    27.170002
H     11.330000    15.710001    27.160000
H      9.660000    16.000000    26.680002
H     13.810000    19.590000    24.760000
H     13.190001    16.070002    22.160000
H     10.210000    19.010002    25.250000
O     17.620001    14.560001    20.610001
S     17.340000    16.180000    20.640001
O     16.730001    16.340000    21.970001
O     18.630001    16.760002    20.240002
O     16.410000    16.170002    19.290001
H     17.500002    14.090000    21.450003
H     15.500001    16.420000    19.530001
O      6.010000    21.060001    23.120001
S      6.970000    20.510002    21.900002
O      7.820001    19.490002    22.530001
O      6.060000    20.080002    20.840000
O      7.900000    21.709999    21.270000
H      5.110001    20.870001    22.800003
H      8.820001    21.450003    21.080000
O      6.330000    19.800001    28.990002
S      7.880001    20.350000    28.980003
O      8.970000    19.620001    29.630001
O      8.360001    20.640001    27.630003
O      7.930000    21.790001    29.790001
H      6.250000    18.940001    29.440002
H      8.170000    22.540001    29.230001
O      9.550000    18.600002    19.340002
S      8.270000    17.590000    19.130001
O      8.810000    17.060001    17.870001
O      8.030001    17.000000    20.450001
O      6.940000    18.460001    18.680000
H      9.880000    18.480000    20.250000
H      6.190000    18.310001    19.280001
O     10.610001    22.820000    25.600002
S      9.290000    22.830000    24.620001
O     10.010000    23.090000    23.370001
O      8.570001    21.570000    24.880001
O      8.460000    24.180002    25.070002
H     10.750000    21.870001    25.780001
H      7.510000    24.020002    25.160000
O     10.930000    11.400002    27.750000
S      9.840000    12.640000    27.660000
O     10.170001    13.780001    28.530003
O      9.750000    13.060001    26.260002
O      8.350000    12.100000    28.100002
H     11.460000    11.410000    28.560001
H      8.310000    11.130000    28.130001
O     18.670002    17.660000    23.880001
S     19.520000    18.820002    23.080002
O     20.730001    18.410000    22.369999
O     18.340000    19.090000    22.250002
O     19.820002    20.230000    23.870001
H     19.070000    16.800001    23.670002
H     19.780001    20.110001    24.830000
O     14.500000    13.380001    23.440001
S     16.010000    12.770000    23.710001
O     15.890001    11.530000    24.470001
O     16.770000    12.870001    22.460001
O     16.639999    13.990001    24.620001
H     13.840000    12.670001    23.460003
H     16.950001    13.550000    25.430002
O      5.900001    15.240001    21.890001
S      4.690000    16.320002    21.610001
O      4.440001    16.360001    23.050001
O      5.160000    17.370001    20.700001
O      3.260000    15.860001    20.940001
H      6.770000    15.300001    21.450003
H      2.810000    16.570000    20.450001
O     18.730001    17.870001    27.930002
S     18.490002    16.320002    27.420002
O     18.640001    15.420000    28.560001
O     17.060001    16.530001    27.150002
O     19.150002    15.870001    25.980000
H     19.190002    17.889999    28.790001
H     19.510000    14.990001    26.210001
O     14.420000    15.320001    27.880001
S     15.050001    13.850001    28.310001
O     15.500001    13.310001    27.030001
O     15.810001    14.090000    29.540003
O     13.650000    13.040000    28.620003
H     14.870001    16.120001    28.210001
H     13.910000    12.110001    28.640001
O      5.170000    12.390001    26.460001
S      5.650000    13.570002    25.410002
O      4.840000    14.740001    25.740002
O      7.110000    13.720001    25.310001
O      4.890000    12.990000    24.070000
H      5.940001    11.910001    26.810001
H      5.540000    12.790001    23.380001
O     16.940001    23.010002    22.240002
S     16.780001    21.760002    21.190002
O     15.860001    20.730001    21.680002
O     16.740000    22.470001    19.910000
O     18.300001    21.250000    20.780001
H     16.530001    22.820000    23.100002
H     18.690001    20.450001    21.170002
O      9.910001    14.310001    21.690002
S      9.090000    12.940001    22.110003
O      7.720000    13.390001    22.369999
O      9.350000    11.740000    21.300001
O      9.920000    12.530001    23.470001
H     10.460000    14.280001    20.889999
H      9.380000    12.690001    24.270000
O      6.090000    19.360001    25.660002
S      6.580000    17.830002    26.049999
O      6.430000    17.100000    24.790001
O      7.750000    17.970001    26.930000
O      5.480000    17.160000    27.080002
H      6.800000    19.970001    25.930002
H      5.380001    16.270000    26.700001
O     10.950001    17.750000    29.530001
S     11.150000    17.070002    31.010000
O     12.480000    17.210001    31.600000
O      9.960001    17.170002    31.860001
O     11.410000    15.600000    30.310001
H     10.270000    18.450001    29.560001
H     11.020000    14.750000    30.570002
O     16.300001    24.950001    24.450001
S     14.740001    24.410002    24.460001
O     14.650001    23.010002    24.070000
O     14.390000    24.560001    25.880001
O     13.610001    25.290001    23.650000
H     16.950001    25.250000    25.100002
H     13.150001    24.730000    23.000002
O     18.040001    22.650002    25.170002
S     17.370001    21.220001    25.620001
O     16.600000    20.690001    24.500000
O     18.320002    20.389999    26.380001
O     16.350000    21.750002    26.800001
H     18.980001    22.680000    25.430002
H     15.440001    21.600000    26.480003
O      7.280001    14.600000    28.960001
S      7.360001    15.360001    30.420000
O      8.660001    14.870001    30.900002
O      6.960001    16.740000    30.110001
O      6.300001    14.750000    31.520002
H      7.320001    13.630000    29.020002
H      5.770000    15.520000    31.770000
O     13.160001    18.660000    27.090000
S     12.650002    20.270002    27.040003
O     13.870001    20.800001    26.370001
O     11.580001    20.120001    26.020002
O     12.190001    20.780001    28.370001
H     13.280001    18.380001    28.050001
O     12.870001    19.400002    21.210001
S     11.460000    20.180000    21.720001
O     11.880001    20.760002    23.030003
O     10.800000    21.190002    20.850000
O     10.680000    18.950001    22.050001
H     13.090000    19.660000    20.280001
O     11.390000    16.250002    20.080002
S     12.900001    15.650001    19.610001
O     12.910000    15.820000    18.130001
O     13.800001    16.590000    20.320000
O     13.000001    14.300001    20.240002
H     10.830001    16.370001    19.260002
