177
MATCHED 4H_P_A3D_c001_HSO4_HHS18_H3O0 t=200.0 HSO=4 HHS=18 H3O=0
C     13.670001    16.080000    21.450003
C     14.870001    16.660002    21.550003
C     15.930000    16.570000    20.740002
O     17.130001    17.230000    20.860003
O     15.820000    15.860001    19.570002
H     13.340001    15.380001    20.700001
H     13.020000    16.260000    22.299999
H     15.050001    17.280001    22.410002
H     17.110001    17.860001    21.560001
H     16.660002    15.760001    19.139999
C     22.000000    18.810001    16.750000
C     20.650002    18.120001    16.580002
C     20.240002    18.340000    15.140000
N     19.790001    17.290001    14.150001
O     20.470001    19.550001    14.550000
N     19.680000    18.560001    17.590000
H     22.040001    19.900002    16.680000
H     22.650002    18.430000    15.970001
H     22.510002    18.650002    17.700001
H     20.830002    17.050001    16.710001
H     19.010002    16.750000    14.500000
H     20.570002    16.670000    13.980001
H     19.610001    17.720001    13.250000
H     20.660000    20.280001    15.130001
H     19.520000    19.560001    17.530001
H     19.970001    18.250000    18.510000
H     18.890001    17.940001    17.500002
O     47.140003    12.190001   -18.120001
S     48.580002    12.990000    17.510000
O     48.260002    14.150001   -17.320002
O     14.110001    12.190001   -17.830002
O     48.480000    13.650000    16.000000
H     47.180004    11.280001   -17.780001
H     49.310001    13.460001    15.530001
O     21.210001    14.100000   -16.000000
S     21.320002    15.570001   -15.260000
O     22.600000    15.870001   -14.610001
O     20.740002    16.550001   -16.180000
O     20.000000    15.540000   -14.270000
H     22.010002    13.770000   -16.440001
H     20.310001    15.800000   -13.390001
O     14.740001    18.830002   -10.880001
S     16.150002    19.530001   -11.360001
O     17.080000    19.880001   -10.290001
O     16.580002    18.780001   -12.550001
O     15.510001    20.980000   -11.830001
H     14.680000    18.620001    -9.930000
H     16.040001    21.690002   -11.430000
O     22.970001    14.190001    11.800001
S     22.230000    15.170001    10.700001
O     20.900002    14.600000    10.460000
O     22.410002    16.560001    11.110001
O     23.130001    14.850000     9.350000
H     23.230001    14.610001    12.640000
H     23.470001    15.690001     9.010000
O     19.900002    18.590000    11.510000
S     18.650002    19.660000    11.600000
O     18.300001    19.950001    10.210000
O     17.930000    18.680000    12.420001
O     19.220001    20.930002    12.480000
H     20.170002    18.760000    10.590000
H     19.070000    21.809999    12.100000
O     15.060000    10.080000   -14.750000
S     14.630001    11.520000   -14.060000
O     48.850002    11.470001   -13.820001
O     15.560001    11.610001   -12.940001
O     14.910001    12.820001   -15.030001
H     14.280001     9.510000   -14.690001
H     15.580001    12.460001   -15.630001
O     17.440001    14.850000   -12.150001
S     18.170000    15.550001   -10.850000
O     18.560001    16.840002   -11.420001
O     17.500002    15.340000    -9.560000
O     19.510000    14.660001   -10.540000
H     16.560001    14.550000   -11.870001
H     19.820002    14.760000    -9.620001
O     20.900002    21.430000   -14.440001
S     21.140001    19.800001   -14.400001
O     21.080000    19.290001   -13.020000
O     20.450001    19.250000   -15.570001
O     22.630001    19.420002   -14.970001
H     20.370003    21.670000   -13.660001
H     22.920000    20.290001   -15.300001
O     23.540001    21.290001    14.250001
S     22.950001    21.809999    12.800001
O     23.750000    22.800003    12.080001
O     22.369999    20.640001    12.130001
O     21.520002    22.500000    13.250000
H     24.510002    21.300001    14.280001
H     21.280001    23.200001    12.630000
O     48.910004    16.550001    16.580002
S     49.050003    18.110001    17.110001
O     14.730000    18.540001    16.700001
O     47.770004    18.560001    16.550001
O     48.810001    18.010002   -16.930000
H     14.040001    16.340000    16.060001
H     48.419998    18.810001   -16.530001
O     25.290001    19.040001    12.150001
S     24.600000    17.950001    13.170000
O     23.210001    18.300001    13.500000
O     25.000000    16.700001    12.520000
O     25.170002    18.280001    14.680000
H     24.560001    19.530001    11.720000
H     25.310001    17.360001    14.980000
O     45.810005    20.200001   -12.610001
S     47.120003    19.380001   -12.050000
O     47.390003    19.970001   -10.740000
O     46.850006    17.980001   -12.400000
O     48.400002    19.830000   -12.990000
H     45.040001    19.610001   -12.650002
H     49.230003    19.680000   -12.490001
O     19.590000    11.510000   -16.570000
S     18.400000    12.550001   -17.030001
O     18.550001    12.860001    17.200001
O     17.120001    11.960001   -16.620001
O     18.270000    13.970001   -16.210001
H     20.050001    11.140001   -17.340000
H     18.920000    13.990001   -15.490000
O     16.170002    14.920001    11.500001
S     17.670000    15.190001    10.860001
O     17.440001    15.800000     9.550000
O     18.300001    15.900001    11.980000
O     18.280001    13.670001    10.690001
H     15.480001    15.550001    11.240001
H     19.240002    13.800001    10.770000
O     24.790001    20.520000    17.210001
S     24.330002    21.650002   -17.350002
O     24.610003    22.980001   -17.880001
O     22.959999    21.230001   -17.010000
O     25.000000    21.130001   -15.930000
H     25.270002    19.790001   -18.010002
H     25.310001    21.890001   -15.410002
O     47.320004    14.060000   -13.200001
S     45.930004    13.370000   -12.650002
O     45.980000    11.910001   -12.730000
O     45.830002    14.040001   -11.350001
O     44.820004    13.850001   -13.770000
H     48.100006    13.500000   -13.020000
H     44.139999    14.290000   -13.230000
O     16.820000    22.030001   -16.080000
S     16.950001    20.480001   -15.540000
O     17.270000    19.810001   -16.800001
O     17.910002    20.350000   -14.440001
O     15.420000    20.140001   -15.020000
H     17.410000    22.680000   -15.660001
H     14.820002    20.900002   -14.990001
O     49.130001    13.680000   -10.600000
S     49.510002    15.130001    -9.940001
O     14.400001    14.640001    -8.670000
O     14.670001    15.890001   -10.890001
O     48.110004    15.960001    -9.710001
H     49.040001    12.860001   -10.080000
H     48.020000    16.300001    -8.800000
O     20.860003    21.650002    15.990001
S     19.460001    22.010002    16.860001
O     18.640001    20.980000    16.150002
O     19.880001    21.590002   -17.440001
O     19.100000    23.400002    16.470001
H     21.300001    22.510002    15.720000
O     21.320002    14.060000    16.530001
S     21.940001    14.680000    15.090000
O     20.810001    14.620000    14.130001
O     22.630001    15.990001    15.290001
O     22.860001    13.560000    14.750000
H     20.360001    13.810000    16.420000
O     17.350002    17.680000    15.800000
S     17.290001    16.080000    16.330002
O     15.890001    15.620001    16.530001
O     18.230001    15.560001    15.300001
O     18.040001    16.220001   -18.050001
H     16.380001    17.900002    15.630001
O     26.730001    16.090000   -17.030001
S     25.920000    17.570002   -17.030001
O     27.000000    18.510000   -17.440001
O     24.710003    17.490002   -17.900002
O     25.600002    17.800001   -15.590000
H     27.660000    16.190001   -17.380001
