173
MATCHED 4H_P_A3L_c001_HSO5_HHS16_H3O1 t=6800.0 HSO=5 HHS=16 H3O=1
C     13.520001    16.010000    21.150000
C     14.450001    16.940001    21.430000
C     15.730000    16.820000    21.080000
O     16.630001    17.850000    21.170002
O     16.310001    15.650001    20.660000
H     13.800001    15.050001    20.750000
H     12.490001    16.190001    21.410000
H     14.120001    17.840000    21.920002
H     16.150002    18.610001    21.440001
H     17.250000    15.730000    20.610001
C     20.750000    17.070002    15.830001
C     21.100002    18.520000    16.200001
C     21.310001    19.510000    15.080000
N     22.630001    19.980001    14.510001
O     20.320000    19.460001    14.130001
N     20.240002    18.810001    17.360001
H     21.220001    16.770000    14.890001
H     21.070002    16.320002    16.550001
H     19.700001    16.930000    15.540000
H     22.070000    18.360001    16.650002
H     22.450001    20.660000    13.790001
H     23.190001    20.420000    15.230001
H     23.230001    19.300001    14.060000
H     19.470001    19.360001    14.530001
H     20.320000    18.050001    18.010002
H     20.740002    19.560001    17.820000
H     19.290001    19.110001    17.210001
O     47.860001    16.160000   -17.560001
S     46.320004    16.140001   -16.980001
O     46.049999    17.440001   -16.370001
O     45.600006    15.590000   -18.130001
O     46.250000    15.230001   -15.610001
H     48.100006    17.090000   -17.670000
H     45.580002    14.530001   -15.650001
O     22.870003    12.290001    15.660001
S     23.220001    13.900002    15.710001
O     22.490002    14.570000    14.640001
O     22.880001    14.100000   -18.590000
O     24.850002    13.740001    15.580001
H     22.139999    12.190001    15.030001
H     25.290001    14.360001    14.970001
O     16.680000    16.010000    16.330002
S     15.770000    14.850000   -18.650002
O     14.810000    15.670000   -17.910002
O     15.160000    13.950001    16.080000
O     16.610001    14.150001   -17.420002
H     16.200001    16.810001    16.620001
H     16.390001    13.200001   -17.330000
O     16.620001    18.520000    11.030001
S     16.510000    19.710001    12.160001
O     17.920000    19.990002    12.460001
O     15.490000    20.500002    11.450001
O     15.660001    18.890001    13.300000
H     17.430000    18.410000    10.490000
H     15.880001    19.250000    14.180001
O     24.100000    16.670000   -18.260000
S     25.260000    17.640001    16.790001
O     24.500000    18.450001    15.840001
O     26.040001    18.310001   -17.880001
O     26.110001    16.570000    15.870001
H     24.310001    16.560001   -17.320002
H     26.940002    16.340000    16.310001
O     15.470000    11.970000   -11.250000
S     14.750000    13.300000   -11.910001
O     49.490005    13.810000   -10.930000
O     15.950001    14.120001   -12.140001
O     49.590000    13.340001   -13.300000
H     15.090000    11.700001   -10.400001
H     49.780003    12.510000   -13.780001
O     26.960001    20.550001    15.320001
S     26.010000    21.180000    14.120001
O     24.740002    21.709999    14.630001
O     26.900002    22.010002    13.300000
O     25.520000    19.710001    13.580000
H     27.840002    20.960003    15.370001
H     26.000002    19.430000    12.780001
O     18.220001    15.420000   -12.240001
S     18.620001    16.040001   -10.770000
O     17.840000    17.280001   -10.810001
O     18.350000    14.880000    -9.910001
O     20.210001    16.450001   -10.730000
H     17.460001    14.850000   -12.050000
H     20.270002    17.230000   -10.140000
O     19.530001    21.910002    16.210001
S     19.820002    23.090000    15.090000
O     19.870001    22.369999    13.820001
O     19.220001   -11.320001    15.400001
O     21.460001    23.130001    15.220001
H     19.080002    22.410002    16.910002
H     21.750002   -11.660000    15.190001
O     15.200001    19.960001   -16.390001
S     49.420006    20.559999   -16.730001
O     49.529999    21.290001   -17.990002
O     48.630005    19.340002   -16.500000
O     49.320000    21.550003   -15.410002
H     15.830001    20.160000   -17.100000
H     48.970001    22.450001   -15.470000
O     16.030001    21.049999   -13.260001
S     15.070001    20.459999   -12.070000
O     49.440002    21.010000   -12.260000
O     15.260000    19.030001   -12.340001
O     15.890001    20.760002   -10.670000
H     15.390000    21.590002   -13.750001
H     15.390000    21.220001    -9.980000
O     18.820002    12.330000    13.450001
S     18.640001    12.860001    15.000001
O     17.490002    12.340001    15.740002
O     20.000000    12.570001    15.490000
O     18.650002    14.500000    15.140000
H     18.180000    11.630001    13.270000
H     17.740000    14.790001    15.350000
O     18.630001    19.820002   -13.900002
S     20.130001    19.230001   -14.230001
O     20.110001    19.110001   -15.690001
O     21.110001    20.030001   -13.480000
O     20.200001    17.710001   -13.620001
H     18.700001    20.490000   -13.200001
H     20.430000    17.130001   -14.360001
O     20.070002    15.240001    12.040001
S     19.590000    16.710001    11.480000
O     19.210001    16.490000    10.080000
O     18.580000    17.200001    12.420001
O     20.680000    17.910002    11.750001
H     19.590000    14.660001    11.430000
H     20.970001    18.350000    10.930000
O     45.880005    16.240002   -12.430000
S     46.840000    17.470001   -11.910001
O     46.090004    18.000000   -10.760001
O     48.240005    17.080000   -11.780001
O     46.620003    18.090002   -13.420000
H     45.200001    15.980000   -11.770000
H     46.830002    19.040001   -13.360001
O     24.990002    17.400002    11.400002
S     24.220001    16.420000    12.480000
O     24.950001    15.310000    13.090000
O     23.380001    17.360001    13.220000
O     23.080002    15.690001    11.530000
H     25.810001    16.980001    11.110001
H     22.580002    14.950001    11.910001
O     16.460001    20.850000    15.350000
S     16.990002    19.620001    16.380001
O     18.000000    18.930000    15.530001
O     17.440001    20.280001   -18.080002
O     15.730000    18.820002    16.450001
H     16.080000    21.580000    15.920001
O     17.200001    12.610001   -14.700001
S     18.340000    11.540001   -14.050001
O     17.780001    10.190001   -14.360001
O     19.610001    11.630001   -14.830000
O     18.480000    11.730001   -12.580000
H     17.650002    13.170000   -15.390000
O     23.460003    21.020000   -18.670002
S     22.770002    20.850000   -17.130001
O     23.000002    19.410002   -16.800001
O     23.410000    21.790001   -16.170002
O     21.350000    21.190002   -17.390001
H     24.230001    21.639999   -18.650002
O     21.220001    16.240002   -16.150002
S     19.700001    15.550001   -16.450001
O     19.940001    14.440001   -17.410000
O     19.110001    15.180001   -15.140000
O     19.070000    16.700001   -17.170002
H     21.950001    15.680000   -16.530001
O     22.600000    22.420002    12.100000
S     22.420002    21.100002    11.060000
O     23.280001    21.600000     9.950001
O     23.020000    19.960001    11.810001
O     21.000002    20.880001    10.670000
H     21.840000    23.070002    12.110001
O     21.490002    11.970000   -17.490002
H     21.320002    12.910000   -17.670000
H     22.070000    11.880001   -16.710001
H     20.790001    11.320001   -17.660000
