173
MATCHED 4H_P_A3D_c001_HSO5_HHS16_H3O1 t=8200.0 HSO=5 HHS=16 H3O=1
C     13.660001    16.760002    21.100002
C     14.870001    17.280001    21.350000
C     16.060001    16.890001    20.880001
O     17.170002    17.690001    20.830002
O     16.190001    15.660001    20.290001
H     13.550000    15.820000    20.580002
H     12.690001    17.120001    21.420002
H     14.910001    18.250000    21.809999
H     16.940001    18.540001    21.160002
H     17.030001    15.840001    19.890001
C     22.299999    18.980001    16.940001
C     21.100002    18.060001    16.740000
C     20.600002    18.060001    15.320001
N     19.620001    17.050001    14.770001
O     20.750000    19.190002    14.550000
N     20.110001    18.360001    17.780001
H     22.040001    20.040001    17.030001
H     23.010002    18.930000    16.110001
H     22.750000    18.890001    17.930000
H     21.320002    17.000000    16.890001
H     18.710001    17.440001    14.580001
H     19.480001    16.160000    15.220001
H     19.970001    16.700001    13.890000
H     21.490002    19.740002    14.750000
H     19.390001    19.010002    17.500002
H     20.510002    18.640001    18.660000
H     19.550001    17.530001    17.940001
O     46.690002    14.030001   -13.760000
S     45.610004    14.690001   -14.820002
O     46.140003    14.510001   -16.170002
O     44.350006    14.150001   -14.300001
O     45.709999    16.280001   -14.400001
H     47.299999    13.430000   -14.220000
H     45.490002    16.830002   -15.170001
O     19.210001    11.650001   -11.940001
S     19.970001    12.140001   -13.310001
O     21.119999    12.950001   -12.880001
O     19.850002    11.000000   -14.210001
O     18.990000    13.400001   -13.730000
H     18.980001    10.700001   -11.930000
H     18.520000    13.430000   -14.580001
O     20.320000    23.300001   -17.040001
S     19.470001    22.090000   -16.320002
O     20.140001    20.840000   -16.690001
O     19.290001    22.570002   -14.950001
O     17.970001    22.210003   -17.000000
H     20.960003    22.790001   -17.570002
H     17.770000    21.320002   -17.350002
O     48.830002    16.310001   -11.400002
S     48.000000    17.660000   -10.950001
O     47.000004    17.320002    -9.920000
O     49.090004    18.590000   -10.660001
O     47.250004    18.260000   -12.280001
H     48.560005    15.620001   -10.760001
H     46.300003    18.150002   -12.090001
O     16.760002    18.080002    11.020000
S     18.150002    18.920000    11.270000
O     18.610001    18.530001    12.600001
O     18.940001    19.220001    10.070001
O     17.580002    20.459999    11.470001
H     16.810001    17.670000    10.140000
H     16.750000    20.680000    11.020000
O     22.330000    18.330000    12.010001
S     21.990002    16.840002    11.390000
O     23.220001    16.090000    11.110001
O     20.970001    16.630001    12.420001
O     20.770000    16.880001    10.290001
H     23.290001    18.410000    12.170000
H     21.170002    16.639999     9.440001
O     18.310001    21.190002    14.180001
S     18.660000    22.060001    15.540000
O     17.370001    22.500000    16.070002
O     19.580000    21.140001    16.230000
O     19.550001    23.290001    14.900002
H     17.370001    21.100002    13.940001
H     20.450001    23.270000    15.250001
O     17.800001    15.880001   -11.250000
S     16.639999    16.020000   -10.090000
O     15.890001    14.840001   -10.540000
O     17.100000    16.380001    -8.740000
O     15.900001    17.350002   -10.710001
H     18.660000    16.000000   -10.810001
H     15.750000    17.850000    -9.880000
O     23.080002    16.220001   -16.980001
S     23.750000    15.450001   -15.690001
O     24.470001    14.310001   -16.250002
O     24.480001    16.410000   -14.850000
O     22.470001    15.060000   -14.720001
H     23.170002    15.640001   -17.760002
H     22.360001    14.110001   -14.870001
O     16.040001    20.780001   -11.150000
S     16.530001    21.170002   -12.670001
O     16.860001    19.910000   -13.350000
O     15.540000    22.120001   -13.190001
O     17.990002    21.910002   -12.530001
H     15.080000    20.930002   -11.130000
H     18.060001    22.750000   -13.010001
O     49.000000    18.740002   -17.250000
S     49.060001    19.930002   -16.120001
O     48.060001    19.490002   -15.140000
O     14.740001    20.310001   -15.820000
O     48.300003    21.280001   -16.680000
H     49.900002    18.570002   -17.570002
H     48.930000    22.010002   -16.590000
O     16.030001    14.800000    16.440001
S     14.970001    13.900002    17.320002
O     49.799999    14.680000   -17.500002
O     49.950005    13.230000    16.240002
O     15.830001    12.740001   -17.580002
H     15.790001    15.730000    16.300001
H     16.230000    12.280001    17.370001
O     16.570000    13.130001    13.250000
S     17.310001    14.510001    12.720001
O     16.710001    14.860001    11.430000
O     17.490002    15.440001    13.840000
O     18.820002    13.900002    12.480000
H     15.640001    13.230000    12.970000
H     19.080002    14.160000    11.580001
O     22.670002    20.760002   -15.170001
S     23.680000    21.730001   -16.040001
O     22.860001    22.139999   -17.180000
O     24.340000    22.760000   -15.230001
O     24.790001    20.820000   -16.850000
H     22.690001    20.910000   -14.210001
H     25.500002    20.760002   -16.200001
O     19.710001    19.360001   -13.580000
S     20.940001    18.290001   -13.850001
O     21.150000    18.160002   -15.290001
O     22.010002    18.530001   -12.880001
O     20.090000    16.910002   -13.550000
H     19.700001    19.730000   -12.680000
H     20.360001    16.280001   -12.860001
O     16.080000    12.630000   -12.090001
S     14.930000    12.520000   -13.270000
O     14.450001    11.170001   -12.930001
O     49.790001    13.690001   -13.500000
O     15.700001    12.210001   -14.690001
H     15.960001    13.490001   -11.660000
H     15.110001    12.350000   -15.440001
O     21.590002    15.000001    14.840001
S     23.230001    15.340000    15.000001
O     23.850002    14.620000    13.860001
O     23.290001    16.830002    14.910001
O     23.590002    14.870001    16.370001
H     21.190002    14.630001    15.680000
O     22.680000    20.880001    14.200001
S     23.290001    22.260000    14.970001
O     24.330002    21.730001    15.890001
O     23.930000    22.990000    13.840000
O     22.120001    22.820000    15.700001
H     22.590000    21.070002    13.220000
O     18.970001    14.930000    16.590000
S     19.380001    14.770001   -17.480000
O     18.810001    13.510000   -16.940001
O     20.870001    14.770001   -17.450001
O     18.790001    16.010000   -16.890001
H     18.400000    14.130001    16.410000
O     15.460001    19.750002    16.520000
S     16.760002    18.810001    17.040001
O     17.690001    18.620001    15.890001
O     17.450001    19.520000   -17.540001
O     16.120001    17.570002    17.570002
H     15.700001    20.160000    15.640001
O     26.200001    20.480001    12.780001
S     26.100002    18.960001    13.530001
O     27.460001    18.360001    13.590001
O     25.760002    19.490002    14.880000
O     24.970001    18.240002    12.880001
H     25.630001    20.400002    11.970000
O     27.030001    22.010002    14.830000
H     27.110003    22.660000    14.110001
H     26.470001    21.310001    14.440001
H     26.570000    22.369999    15.600000
