177
MATCHED 4H_R_4H_HSO_rich_HSO4_HHS18_H3O0 t=20.0 HSO=4 HHS=18 H3O=0
N     14.730000    22.610001    22.670002
C     14.850000    21.160002    22.490002
C     13.560000    20.540001    21.930000
C     16.030001    20.680000    21.680002
O     16.450001    19.410002    21.980001
N     16.960001    21.400002    20.820000
C     18.330000    20.940001    20.530003
C     18.330000    19.900002    19.410002
C     19.190002    22.110003    20.120001
O     19.030001    22.680000    18.890001
O     20.220001    22.590000    20.889999
H     15.540000    23.050001    23.080002
H     14.550000    23.110001    21.809999
H     15.040001    20.810001    23.500002
H     16.470001    21.620003    19.970001
H     18.780001    20.610001    21.460001
H     20.240002    22.590000    21.830002
H     13.380001    19.470001    22.010002
H     13.460001    20.830002    20.889999
H     12.670001    20.889999    22.440002
H     18.010002    18.890001    19.700001
H     19.390001    19.840000    19.190002
H     17.910002    20.220001    18.460001
H     13.960000    22.820000    23.290001
H     15.740002    18.810001    22.130001
H     19.690001    23.340000    18.760000
H     17.130001    22.310001    21.230001
O     11.580001    18.940001    23.980000
S     12.440001    19.130001    25.370003
O     11.770000    18.450001    26.480003
O     13.790001    18.760000    24.920002
O     12.340001    20.770000    25.400002
H     10.940001    18.230001    24.160002
H     12.140001    21.170002    26.260002
O     17.250000    25.030001    18.560001
S     16.790001    25.360001    20.110001
O     15.450001    25.920000    20.300003
O     17.150000    24.050003    20.640001
O     17.940001    26.300001    20.830002
H     16.680000    25.290001    17.810001
H     17.700001    27.140003    21.260002
O     10.680000    25.100002    23.300001
S     10.920000    23.820002    24.310001
O     12.060001    23.240002    23.580000
O     11.110001    24.080002    25.740002
O      9.580001    23.040001    23.760002
H     11.020000    25.070002    22.390001
H      8.940001    22.690001    24.400002
O     23.480000    21.790001    21.049999
S     23.880001    21.900002    22.640001
O     22.770002    22.230000    23.540001
O     24.930000    20.880001    22.810001
O     24.890001    23.180000    22.860001
H     23.520000    20.920000    20.620001
H     24.430000    23.680000    23.549999
O      7.770000    20.389999    21.990002
S      8.330001    20.889999    20.530003
O      8.220000    19.720001    19.650002
O      7.840000    22.250002    20.290001
O      9.850000    20.990002    21.160002
H      8.000000    19.470001    22.180002
H     10.110001    21.860001    20.800001
O     18.150002    19.290001    26.490002
S     17.240002    18.020000    25.990002
O     16.910002    18.030001    24.560001
O     17.880001    16.910002    26.700001
O     15.900001    18.210001    26.920002
H     18.410000    19.740002    25.670002
H     15.690001    17.280001    27.120001
O     22.410002    16.950001    19.570002
S     22.940002    18.490002    19.790001
O     21.700001    19.260002    19.670002
O     23.940001    18.790001    20.830002
O     23.670002    18.710001    18.330000
H     22.840002    16.470001    20.310001
H     24.540003    19.150002    18.310001
O     21.130001    26.240002    24.790001
S     19.600000    26.260002    24.170000
O     19.810001    25.670002    22.850000
O     18.650002    25.830002    25.210001
O     19.200001    27.830002    23.840000
H     21.070002    25.840000    25.670002
H     18.560001    28.210001    24.450001
O     19.020000    16.550001    23.310001
S     19.730000    16.810001    21.850002
O     19.810001    18.260000    21.639999
O     20.740002    15.750000    21.890001
O     18.560001    16.360001    20.790001
H     19.550001    16.020000    23.920002
H     19.000000    15.580001    20.410002
O     19.590000    19.620001    15.050001
S     20.860003    20.300003    15.840001
O     20.110001    20.850000    16.980001
O     21.840000    19.220001    15.980000
O     21.460001    21.400002    14.770001
H     19.400002    20.120001    14.240000
H     21.820002    22.110003    15.320001
O     14.880000    23.770000    16.970001
S     14.990001    22.150002    17.280001
O     15.650001    21.930000    18.570002
O     13.730000    21.620003    16.750000
O     16.320002    21.760002    16.380001
H     14.000001    23.690002    16.560001
H     16.000000    21.210001    15.640001
O     14.710001    14.940001    20.990002
S     14.870001    15.460001    22.550001
O     15.990001    14.600000    22.950001
O     14.960001    16.920000    22.540001
O     13.400001    15.360001    23.290001
H     14.950001    15.730000    20.470001
H     13.560000    14.960001    24.160002
O     11.930000    18.480000    19.500000
S     11.420001    17.100000    20.240002
O     11.820001    16.110001    19.230001
O     11.900001    17.330000    21.610001
O      9.780001    17.110001    20.310001
H     12.470001    18.220001    18.740002
H      9.540001    17.240002    21.240002
O     14.110001    22.790001    26.520002
S     15.320001    21.800001    27.020000
O     15.570001    21.410000    25.630001
O     16.250002    22.190001    28.080002
O     14.690001    20.530003    27.870003
H     14.250001    23.720001    26.780003
H     14.940001    19.730000    27.370003
O     20.140001    16.110001    15.620001
S     19.370001    15.970001    17.070002
O     19.870001    15.040001    18.080002
O     18.870001    17.310001    17.420002
O     18.010002    15.120001    16.660002
H     20.220001    17.080000    15.550001
H     17.850000    14.500000    17.390001
O     22.490002    25.300003    21.780003
S     23.380001    26.670000    21.950001
O     24.230001    26.510000    20.760002
O     22.320002    27.680000    22.040001
O     24.190002    26.730001    23.380001
H     21.550003    25.550001    21.820002
H     24.190002    27.560001    23.880001
O     14.020000    25.370003    24.799999
S     15.560001    25.830002    24.460001
O     15.620001    25.160000    23.160002
O     16.060001    27.130001    24.940002
O     16.210001    24.610003    25.350000
H     13.520001    26.150000    25.100002
H     17.070002    24.970001    25.620001
O     17.930000    24.540003    15.500001
S     17.630001    23.770000    14.080001
O     18.280001    22.470001    14.190001
O     16.190001    23.990002    13.920001
O     18.220001    24.850002    12.980001
H     18.610001    24.070000    16.020000
H     18.660000    24.310001    12.310000
O     15.610001    16.830002    19.080002
S     15.120001    18.240002    18.300001
O     16.240002    18.730001    17.450001
O     13.890000    17.830002    17.560001
O     14.720001    19.000000    19.510000
H     15.180001    16.130001    18.510000
O     20.010002    22.650002    23.510000
S     18.610001    22.070000    24.270000
O     18.620001    22.390001    25.720001
O     17.550001    22.740002    23.470001
O     18.460001    20.630001    23.950003
H     20.550001    23.300001    24.040001
O     22.440002    22.210003    18.230001
S     22.280003    23.820002    17.730001
O     23.640001    24.400002    17.920000
O     21.870001    23.840000    16.300001
O     21.210001    24.400002    18.590000
H     23.410000    22.090000    18.440001
O     12.250000    25.459999    20.850000
S     12.360001    24.010000    20.000000
O     11.200000    23.220001    20.500002
O     12.040001    24.300001    18.570002
O     13.690001    23.440001    20.340002
H     13.120001    25.730001    21.290001
