173
MATCHED 4H_R_4H_HSO_rich_HSO5_HHS16_H3O1 t=2400.0 HSO=5 HHS=16 H3O=1
N     18.190001    19.890001    25.240002
C     18.300001    18.710001    24.370001
C     16.990002    18.200001    23.770000
C     19.290001    18.900002    23.250000
O     19.910000    17.710001    22.940002
N     19.720001    20.140001    22.640001
C     20.630001    20.120001    21.490002
C     20.040001    19.390001    20.280001
C     21.010000    21.530001    21.110001
O     20.160000    22.530001    21.490002
O     21.990002    21.850002    20.200001
H     17.660000    19.710001    26.080000
H     19.020000    20.370003    25.540001
H     18.870001    18.070000    25.040001
H     18.880001    20.690001    22.560001
H     21.590002    19.630001    21.670000
H     22.690001    21.220001    20.220001
H     16.970001    17.140001    23.520000
H     16.530001    18.790001    22.980001
H     16.200001    18.210001    24.520000
H     18.980001    19.540001    20.080002
H     20.210001    18.330000    20.480001
H     20.600002    19.510000    19.360001
H     17.620001    20.630001    24.870003
H     19.550001    16.920000    23.310001
H     20.310001    23.370001    21.090002
H     20.230000    20.620001    23.370001
O     18.010002    26.100002    20.220001
S     17.930000    26.610001    21.780003
O     18.750002    27.820000    21.760002
O     16.570000    26.650002    22.330000
O     18.800001    25.430002    22.540001
H     17.190001    26.200001    19.710001
H     18.490002    24.990002    23.350000
O     15.900001    21.190002    28.790001
S     15.430001    19.710001    28.220001
O     16.210001    19.380001    27.030001
O     15.140000    18.760000    29.300001
O     14.080001    19.930002    27.299999
H     15.960001    21.020000    29.750002
H     13.400001    19.430000    27.780001
O     22.580002    15.510001    26.340000
S     22.700003    17.140001    26.140001
O     21.370001    17.740000    26.010000
O     23.580000    17.530001    27.240002
O     23.750000    17.180000    24.870003
H     21.650002    15.200001    26.370001
H     23.470001    17.930000    24.310001
O     20.590000    17.490002    14.820002
S     21.820002    17.600000    15.910001
O     21.070002    18.100000    17.060001
O     22.630001    16.370001    15.920001
O     22.810001    18.730001    15.240001
H     20.310001    16.580002    14.590001
H     22.880001    19.610001    15.660001
O     20.360001    18.180000    30.820004
S     20.340002    17.980001    29.190002
O     18.940001    18.090002    28.770000
O     21.360001    18.930000    28.720001
O     20.710001    16.380001    29.050003
H     20.790001    19.010002    31.090002
H     20.080002    15.890001    28.510000
O     21.380001    23.340000    17.000000
S     20.470001    22.060001    16.500000
O     19.450001    22.500000    15.540000
O     21.470001    21.080000    16.060001
O     19.690001    21.510000    17.850000
H     22.260000    23.310001    16.590000
H     18.750002    21.270000    17.780001
O     25.430002    21.240002    24.280003
S     25.200003    21.790001    22.740002
O     26.590002    21.880001    22.270000
O     24.050003    21.260002    22.010002
O     24.970001    23.390003    23.050001
H     24.830000    20.510002    24.470001
H     24.340000    23.670002    22.360001
O     12.040001    17.770000    25.459999
S     12.420001    17.170002    23.980000
O     11.280001    17.450001    23.100002
O     13.820001    17.460001    23.660002
O     12.210001    15.550001    24.150002
H     11.340000    18.450001    25.510002
H     12.920000    14.980000    23.810001
O     15.470000    12.700001    21.430000
S     15.430001    13.050001    23.040001
O     14.190001    13.720001    23.430002
O     16.040001    11.950001    23.800001
O     16.610001    14.210001    23.050001
H     14.520000    12.700001    21.210001
H     17.160000    14.130001    23.850002
O     16.350000    20.210001    20.140001
S     16.300001    21.770000    19.630001
O     15.530001    22.740002    20.410002
O     17.720001    22.090000    19.840000
O     15.970001    21.870001    18.020000
H     15.500001    20.160000    20.610001
H     15.440001    22.680000    17.990002
O     11.580001    20.600002    21.910002
S     13.140000    20.930002    22.340002
O     14.080001    19.930002    21.830002
O     13.490001    22.350002    22.380001
O     13.080001    20.700001    23.970001
H     11.440001    19.940001    21.210001
H     12.830001    21.450003    24.540003
O     26.740000    18.850000    22.880001
S     25.580002    17.850000    22.270000
O     26.010000    16.639999    22.980001
O     24.240000    18.440001    22.200001
O     25.830002    17.420002    20.710001
H     27.380001    18.550001    23.549999
H     25.830002    16.460001    20.540001
O     18.440001    22.700003    29.580002
S     19.540001    22.400000    28.400002
O     20.910000    22.420002    28.920002
O     19.270000    21.090002    27.790001
O     19.180000    23.490002    27.220001
H     18.690001    22.580002    30.520000
H     19.900002    24.150002    27.190001
O     13.360001    13.500000    26.390001
S     14.410001    14.540001    27.100000
O     13.410001    15.390000    27.750000
O     15.620001    13.970001    27.700003
O     14.920001    15.350000    25.760002
H     13.390001    12.610001    26.780003
H     15.870001    15.500001    25.860003
O     17.000000    18.450001    15.190001
S     16.830002    18.350000    16.830002
O     17.950001    19.160002    17.320002
O     15.500001    18.870001    17.140001
O     16.710001    16.750000    17.240002
H     16.910002    17.520000    14.920001
H     17.130001    16.560001    18.100000
O     22.690001    16.530001    19.320000
S     22.790001    15.500001    20.600002
O     24.139999    14.940001    20.690001
O     22.130001    16.290001    21.639999
O     21.670000    14.380001    20.160000
H     23.549999    16.700001    18.900002
H     20.920000    14.660001    20.710001
O     22.190001    22.450001    24.160002
S     22.160000    20.950001    24.940002
O     20.700001    20.860003    25.220001
O     22.450001    19.850002    23.970001
O     23.130001    20.900002    26.080000
H     22.530001    23.180000    24.740002
O     25.080002    21.850002    18.840000
S     24.799999    20.210001    18.540001
O     26.120003    19.830000    19.130001
O     23.680000    19.880001    19.470001
O     24.480001    20.220001    17.090000
H     24.799999    22.480001    18.110001
O     21.709999    26.020002    22.150002
S     22.240002    25.360001    20.690001
O     20.980000    24.780003    20.130001
O     22.690001    26.500000    19.850002
O     23.300001    24.390001    21.070002
H     22.250002    25.620001    22.880001
O     17.700001    16.200001    26.100002
S     18.760000    14.980000    25.600002
O     19.730000    15.080000    26.720001
O     17.900002    13.770000    25.450001
O     19.170000    15.570001    24.290001
H     17.830002    16.410000    27.070000
O     16.390001    21.890001    24.860001
S     17.270000    22.620001    23.620003
O     18.690001    22.830000    24.020002
O     17.290001    21.460001    22.680000
O     16.450001    23.730001    23.070002
H     15.530001    22.410002    24.840002
O     20.820000    26.250002    17.880001
H     21.520002    26.930000    17.980001
H     19.950001    26.660002    17.720001
H     20.760002    25.650002    18.640001
