198
NATURAL shell-small 3H_P_A2O_k0 HSO=3 HHS=22 H3O=0
C     15.280001    22.850000    17.820000
C     16.300001    23.150002    18.630001
C     17.570002    22.770002    18.410000
O     18.440001    22.970001    19.440001
O     18.070000    22.090000    17.330000
H     15.500001    22.310001    16.910002
H     14.230001    23.030003    17.980001
H     16.160000    23.620003    19.590000
H     19.150002    22.360001    19.340002
H     18.240002    22.730000    16.650002
C     18.190001    15.020000    16.960001
C     18.900002    15.220001    18.300001
C     19.660000    13.950001    18.590000
N     18.970001    12.870001    19.100000
O     21.020000    14.050001    18.450001
N     19.750002    16.420000    18.270000
H     17.470001    15.820000    16.790001
H     18.840000    15.190001    16.100002
H     17.660000    14.070001    16.950001
H     18.160002    15.350000    19.090000
H     19.430000    12.080001    19.530001
H     17.970001    12.900001    18.960001
H     21.460001    13.230000    18.520000
H     20.550001    16.320002    17.660000
H     19.160002    17.180000    17.960001
H     20.090000    16.630001    19.200001
O     16.380001    27.090000   -17.020000
S     17.250000    26.730001    17.320002
O     17.790001    27.920000    16.670000
O    -17.380001    25.810001    17.750000
O     16.120001    26.030003    16.340000
H     16.300001    28.060001   -17.050001
H     16.320002    25.150002    15.990001
O     15.710001    45.680004    15.880001
S     17.250000    46.000004    16.380001
O     18.120001    45.160004    15.560001
O     17.370001    47.460003    16.290001
O     17.340000    46.030003    18.030001
H     15.610001    44.739998    15.660001
H     17.990002    45.410004   -17.290001
O    -11.580001    50.690002   -15.480001
S    -11.490001    51.670002   -16.800001
O    -10.830001    50.919998    17.830002
O    -12.810000    52.240005   -17.100000
O    -10.700001    52.970005   -16.160000
H    -11.570001    49.760002   -15.760001
H     -9.790000    53.050003   -16.490000
O    -10.690001    46.870003   -17.230000
S    -11.000000    47.450005    16.960001
O    -10.860001    46.330002    16.030001
O    -12.190001    48.300003    17.150000
O     -9.760000    48.520004    16.800001
H    -10.580001    45.900002   -17.210001
H     -9.890000    49.470001    16.610001
O    -17.170002    19.750002   -13.890000
S    -15.680000    20.430000   -13.730000
O    -14.830000    19.520000   -12.960000
O    -15.540000    21.110001   -15.020000
O    -16.310001    21.610001   -12.770000
H    -17.250000    18.950001   -13.330001
H    -15.970001    21.580000   -11.860001
O    -14.400001    46.520004   -15.910001
S    -13.170000    47.000004   -14.930000
O    -12.250000    45.940002   -14.490002
O    -12.820001    48.290001   -15.520000
O    -14.340000    47.250004   -13.800001
H    -14.080001    45.680004   -16.290001
H    -14.000001    47.160000   -12.900001
O     12.130001    25.880001    16.520000
S     12.680000    26.240002    18.030001
O     13.690001    25.320000   -17.120001
O     12.540001    27.690001    18.190001
O     11.390000    25.790003   -16.740000
H     12.280001    26.670000    15.990001
H     11.660000    25.420000   -15.880001
O     14.580001    54.340004    14.470000
S     14.130001    20.230000    14.300001
O     13.090000    20.190001    13.270000
O     13.750001    20.840000    15.580001
O     15.610001    20.810001    13.870001
H     14.260001    54.040001    13.600000
H     15.610001    20.950001    12.910000
O     15.110001    25.220001   -11.970000
S     16.180000    25.470001   -13.190001
O     17.060001    26.620003   -12.970000
O     16.750000    24.240000   -13.730000
O     15.250001    26.080000   -14.400001
H     15.170001    25.520000   -11.050000
H     15.290001    25.810001   -15.330001
O     16.220001    21.140001   -13.250000
S     14.590001    21.260002   -13.000001
O     14.220000    20.740002   -11.680001
O     14.120001    22.530001   -13.540001
O     13.940001    20.350000   -14.210001
H     16.770000    21.170002   -12.450000
H     13.140000    19.920002   -13.850001
O    -14.480000    54.560005   -16.670000
S    -13.740001    19.950001    18.030001
O    -14.880000    20.850000    17.840000
O    -12.380000    20.380001    18.370001
O    -13.420000    19.060001    16.680000
H    -13.890000    54.459999   -15.910001
H    -13.330001    19.740002    15.980000
O    -13.700001    51.240002    13.520001
S    -13.060001    51.290001    15.040001
O    -14.000001    51.270004    16.170002
O    -12.280001    50.100002    14.680000
O    -11.910001    52.460003    14.940001
H    -14.670001    51.330002    13.630000
H    -11.930000    52.889999    15.820000
O     11.770000    22.810001    17.070002
S     10.950001    21.990002    18.240002
O     10.270000    22.830000   -16.460001
O     10.080000    21.210001    17.360001
O     12.050000    21.040001   -16.670000
H     11.330000    22.730000    16.210001
H     11.880001    20.080002   -16.740000
O     16.500000    19.910000   -16.480001
S     15.930000    54.150005   -16.990002
O     17.020000    53.180004   -17.120001
O     14.660001    53.930000   -16.280001
O     15.780001    54.340004    17.070002
H     16.110001    20.080002   -15.600000
H     14.880000    54.100002    16.760002
O    -15.470000    50.560001    10.770000
S    -16.650002    49.870003    11.680001
O     17.889999    50.590000    11.140001
O    -16.590000    48.400002    11.750001
O    -16.460001    50.550003    13.170000
H    -14.810000    49.910004    10.470000
H    -17.340000    50.810005    13.480000
O     18.060001    20.280001    15.250001
S    -17.160000    54.389999    15.320001
O    -16.570000    54.200001    16.650002
O     17.560001    53.370003    14.900002
O    -15.750000    53.950005    14.600000
H     17.260000    20.480001    14.740001
H    -15.450001    19.020000    14.080001
O     14.790001    50.639999   -16.140001
S     15.050001    49.070000   -15.740002
O     16.280001    49.180000   -14.960001
O     13.840000    48.510002   -15.120001
O     15.720000    48.300003   -17.030001
H     13.880000    50.960003   -16.020000
H     15.310000    47.460003   -17.300001
O     17.580002    43.990002   -14.370001
S     17.960001    45.510002   -13.850001
O     18.140001    45.290001   -12.410001
O    -16.910002    46.160004   -14.870001
O     16.620001    46.360001   -14.300001
H    -17.400002    43.630005   -14.930000
H     16.370001    47.040001   -13.640001
O    -14.340000    25.960003    17.580002
S    -14.440001    24.320002    17.640001
O    -14.620000    23.680000   -16.740000
O    -15.240001    23.990002    16.460001
O    -12.890000    23.960001    17.230000
H    -14.920001    26.200001    18.320002
H    -12.730000    23.240002    16.590000
O     13.870001    51.380001    13.860001
S     15.260000    50.730003    14.460001
O     16.590000    50.800003    13.870001
O     15.110001    51.100002    15.870001
O     14.810000    49.150005    14.620000
H     14.120001    51.350002    12.920000
H     15.570001    48.580002    14.410001
O    -15.670000    46.650005    13.510000
S    -14.860001    47.330002    14.770001
O    -15.470000    48.650002    15.010000
O    -14.930000    46.360001    15.870001
O    -13.270000    47.350002    14.370001
H    -16.410000    47.160000    13.150001
H    -12.870001    48.230003    14.280001
O    -16.170002    24.580002   -13.870001
S    -15.180001    25.820000   -14.290000
O    -13.830000    25.240002   -14.200001
O    -15.620001    26.600000   -15.450001
O    -15.400001    26.710003   -12.920000
H    -17.040001    24.570000   -14.300001
H    -15.600000    27.660000   -13.050001
O    -14.780001    52.230000   -14.560001
S    -16.010000    51.530003   -13.640001
O    -15.940001    52.210003   -12.310000
O    -17.250000    51.870003   -14.380001
O    -15.630001    50.090004   -13.550000
H    -14.260001    52.889999   -14.010000
O     16.010000    24.230001    13.040000
S     17.520000    23.940001    13.740001
O     18.140001    25.270002    13.460001
O     17.330000    23.860001    15.220001
O    -17.380001    22.889999    13.040000
H     16.090000    23.880001    12.110001
O    -15.130001    21.130001    14.160000
S    -13.450001    20.950001    14.010000
O    -13.230000    21.820002    12.820001
O    -12.920000    21.410000    15.320001
O    -13.420000    19.490002    13.710001
H    -15.240001    21.850002    14.840001
