155
NATURAL shell-small 3H_R_C1_k1 HSO=4 HHS=15 H3O=0
N     17.620001    20.960003    26.100002
C     18.770000    21.680002    25.540001
C     19.560001    22.640001    26.440001
C     19.780001    20.830002    24.810001
O     20.840000    20.280001    25.480001
N     19.710001    20.770000    23.430002
C     18.670002    21.030003    22.450001
C     19.060001    22.240002    21.610001
C     18.340000    19.810001    21.620003
O     19.430000    19.340002    20.940001
O     17.180000    19.100000    21.800001
H     17.110001    21.610001    26.680002
H     16.980001    20.620001    25.400002
H     18.410000    22.400000    24.799999
H     20.559999    20.450001    22.990000
H     17.690001    21.240002    22.889999
H     16.770000    19.230001    22.640001
H     20.370003    23.130001    25.900002
H     20.090000    22.010002    27.160000
H     19.000000    23.460003    26.870001
H     18.930000    23.210001    22.090000
H     18.350000    22.440002    20.800001
H     20.040001    22.240002    21.130001
H     17.930000    20.170002    26.639999
H     20.590000    19.780001    26.250002
H     19.240002    18.530001    20.480001
O     14.250001    23.190001    20.230000
S     14.250001    21.790001    21.110001
O     15.530001    21.680002    21.820002
O     12.950001    21.650002    21.760002
O     14.420000    20.510002    20.090000
H     13.340001    23.510000    20.350000
H     13.730000    19.830000    20.040001
O     17.790001    24.120003    29.230001
S     16.630001    23.040001    29.700001
O     15.680000    23.840000    30.480001
O     16.510000    22.390001    28.390003
O     17.240002    21.830002    30.640001
H     17.500002    25.040001    29.290001
H     16.930000    21.720001    31.550003
O     24.320002    18.360001    22.630001
S     22.870003    18.430000    23.410000
O     23.180000    18.760000    24.799999
O     21.950001    19.280001    22.650002
O     22.460001    16.840002    23.260002
H     25.040001    18.740002    23.150002
H     22.200001    16.450001    24.110001
O     15.020000    25.070002    24.360001
S     14.480000    23.600002    24.880001
O     13.150001    23.480000    24.280003
O     15.550001    22.610001    24.760000
O     14.520000    23.860001    26.510000
H     14.400001    25.389999    23.680000
H     13.600000    23.700001    26.770000
O     21.820002    25.090000    28.770000
S     21.870001    25.700001    27.250002
O     22.470001    27.040003    27.360001
O     22.360001    24.670000    26.340000
O     20.350000    25.900002    26.630001
H     22.360001    24.280003    28.820002
H     19.970001    26.790001    26.610001
O     23.170002    22.040001    18.540001
S     23.270000    20.780001    19.600000
O     24.590000    20.780001    20.230000
O     21.960001    20.660000    20.250000
O     23.480000    19.560001    18.520000
H     23.500002    22.910002    18.840000
H     23.140001    18.690001    18.810001
O     20.200001    16.639999    25.200003
S     18.690001    16.370001    24.600000
O     17.820000    15.530001    25.430002
O     18.340000    17.720001    24.130001
O     18.800001    15.730000    23.090000
H     19.970001    16.280001    26.070002
H     18.370001    14.860001    23.059999
O     17.520000    16.600000    20.110001
S     16.340000    16.820000    18.990000
O     15.280001    15.840001    19.250000
O     16.200001    18.280001    19.040001
O     17.100000    16.530001    17.560001
H     18.380001    16.220001    19.870001
H     16.520000    15.960001    17.020000
O     24.880001    21.090002    28.920002
S     24.290001    21.470001    27.430000
O     22.840002    21.610001    27.540001
O     24.980001    22.630001    26.860001
O     24.540003    19.970001    26.790001
H     25.720001    21.550003    29.070000
H     23.760002    19.600000    26.320002
O     15.100001    26.480003    21.410000
S     16.550001    25.860003    20.910000
O     17.550001    26.880001    20.590000
O     16.850000    24.640003    21.670000
O     16.270000    25.150002    19.450001
H     15.200001    27.360001    21.800001
H     15.920001    24.240000    19.500000
O     16.130001    20.580002    17.670000
S     17.530001    21.440001    17.740000
O     17.170002    22.680000    18.430000
O     18.570002    20.650002    18.400000
O     17.990002    21.900002    16.220001
H     16.230000    19.670002    18.000000
H     18.820002    21.480000    15.940001
O     22.230000    22.970001    24.190002
S     23.690002    22.990000    23.440001
O     23.300001    23.260002    22.050001
O     24.630001    23.780001    24.250002
O     24.050003    21.400002    23.640001
H     22.220001    23.730001    24.799999
H     24.850002    21.260002    24.180002
O     15.110001    15.980000    22.570002
S     15.190001    14.340000    22.400000
O     13.910000    13.900002    21.830002
O     16.520000    14.080001    21.840000
O     15.120001    13.680000    23.900002
H     14.280001    16.170002    22.110003
H     14.910001    12.730000    23.880001
O     19.870001    27.410002    24.000000
S     20.350000    26.230001    22.959999
O     19.900002    24.940002    23.490002
O     20.130001    26.670000    21.580000
O     21.960001    26.070002    23.270000
H     19.500000    28.250000    23.660002
H     22.520000    26.240002    22.490002
O     19.490002    24.580002    17.190001
S     20.610001    25.040001    18.300001
O     20.500002    24.090002    19.410002
O     21.870001    25.420000    17.650002
O     19.960001    26.470001    18.800001
H     18.930000    23.820002    17.440001
H     19.780001    26.390001    19.750002
O     15.040001    19.870001    26.340000
S     14.960001    18.900002    24.950001
O     13.640001    19.350000    24.430000
O     16.100002    19.510000    24.209999
O     15.080000    17.490002    25.400002
H     15.250001    19.270000    27.110003
O     19.220001    20.210001    28.520002
S     19.470001    18.550001    28.310001
O     20.790001    18.430000    27.620001
O     19.020000    17.660000    29.420002
O     18.390001    18.480000    27.290001
H     19.150002    20.290001    29.510002
O     20.710001    16.630001    20.180000
S     20.670002    16.820000    18.500002
O     19.630001    17.840000    18.220001
O     22.060001    17.240002    18.150002
O     20.230000    15.490000    18.000000
H     21.639999    16.770000    20.530003
O     10.860001    18.340000    20.860003
S     12.410001    17.710001    20.610001
O     13.170000    18.430000    21.670000
O     12.500000    16.230000    20.720001
O     12.760000    18.160002    19.230001
H     10.320001    17.580002    21.210001
