196
NATURAL shell-small 4H_P_A3L_c001_k0 HSO=6 HHS=19 H3O=0
C     13.690001    16.140001    20.860003
C     14.770001    16.920000    21.049999
C     16.020000    16.440001    21.090002
O     17.110001    17.160000    21.510000
O     16.370001    15.170001    20.730001
H     13.730000    15.060000    20.840000
H     12.750001    16.660002    20.860003
H     14.570000    17.950001    21.310001
H     16.760002    18.010002    21.760002
H     17.240002    15.120001    21.080000
C     20.550001    16.510000    15.820000
C     21.150000    17.830002    16.310001
C     21.150000    18.900002    15.250001
N     22.280003    19.780001    14.790001
O     19.900002    19.130001    14.740001
N     20.480001    18.260000    17.550001
H     21.119999    16.260000    14.930000
H     20.900002    15.710001    16.470001
H     19.470001    16.390001    15.770000
H     22.180002    17.770000    16.670000
H     22.889999    19.180000    14.260001
H     22.080002    20.570002    14.190001
H     22.860001    20.110001    15.550001
H     19.750002    19.450001    13.870001
H     20.480001    17.570002    18.290001
H     20.930002    19.110001    17.860001
H     19.490002    18.420002    17.400002
O     49.080006    13.140000   -16.530001
S     49.020004    11.760000   -15.630001
O     49.599998    10.710001   -16.460001
O     49.580002    12.180000   -14.340000
O     47.380005    11.730001   -15.490000
H     49.440002    12.930001   -17.400002
H     46.959999    11.540001   -14.630001
O     44.050003    14.160000   -13.590001
S     44.869999    14.590001   -14.950001
O     46.150002    15.290001   -14.870001
O     44.510002    13.410001   -15.740002
O     44.120003    15.980000   -15.420000
H     44.470001    14.020000   -12.720001
H     43.610001    15.810001   -16.240002
O     25.250000    15.310000    15.120001
S     25.420000    16.930000    15.350000
O     24.090002    17.460001    15.020000
O     26.049999    17.250000    16.630001
O     26.060001    17.350002    13.890000
H     25.670002    14.880000    15.890001
H     26.930000    17.770000    14.070001
O     24.260002   -11.010000    14.520000
S     22.880001   -11.810001    14.120001
O     23.090000    22.690001    15.030001
O     21.750002   -10.900001    14.300001
O     22.920000   -11.930000    12.480000
H     24.640003   -11.360001    15.340000
H     22.770002    22.750000    12.420001
O     17.460001    13.930000   -11.760000
S     16.310001    12.780001   -11.490001
O     16.820000    11.720000   -10.610001
O     15.020000    13.480000   -11.460000
O     16.360001    12.040001   -12.960000
H     18.180000    13.820001   -11.120001
H     15.460001    11.970000   -13.330001
O     14.720001    16.750000    15.500001
S     15.360001    15.810001    16.690001
O     15.180001    16.650002   -17.760002
O     14.650001    14.540001    16.510000
O     16.960001    15.630001    16.370001
H     14.510001    17.650002    15.790001
H     17.360001    15.300001   -18.450001
O     49.030003    19.530001   -16.120001
S     48.209999    19.210001   -17.510000
O     47.410004    20.440002   -17.510000
O     49.170002    18.830002   -18.550001
O     47.120003    18.030001   -17.120001
H     50.000000    19.530001   -16.250002
H     46.920006    17.370001   -17.810001
O     20.140001    15.890001    12.760000
S     18.920000    16.820000    12.160001
O     19.550001    18.140001    12.150001
O     18.090002    16.300001    11.070000
O     17.930000    17.210001    13.420000
H     20.360001    15.210000    12.100000
H     17.100000    16.690001    13.360001
O     15.620001    19.630001    14.870001
S     15.390000    20.459999    13.470001
O     15.910001    21.830002    13.510000
O     16.010000    19.520000    12.530001
O     49.400002    20.550001    13.220000
H     15.740002    20.250000    15.610001
H     49.200001    21.350000    12.710000
O     18.960001    11.910001   -17.530001
S     17.810001    11.630001   -16.380001
O     18.500002    11.660000   -15.090000
O     16.550001    12.220000   -16.840002
O     17.760002    10.050000   -16.860001
H     19.760000    12.360001   -17.200001
H     17.760002     9.490001   -16.070002
O     19.520000    15.920001   -12.240001
S     20.700001    17.060001   -12.090001
O     21.670000    17.020000   -13.190001
O     19.840000    18.250000   -11.960001
O     21.500000    16.830002   -10.670000
H     19.430000    15.650001   -13.170000
H     21.400002    17.660000   -10.180000
O     45.360001    15.080000    16.830002
S     46.889999    14.760000    16.330002
O     47.000004    14.810000    14.870001
O     47.540001    15.560001   -18.270000
O     47.260002    13.230000    16.840002
H     44.650002    15.280001    16.190001
H     47.580002    12.620001    16.150002
O     17.010000   -11.760000    16.890001
S     18.170000   -11.550001    15.750000
O     19.420002   -12.320002    15.730000
O     17.520000   -11.430000    14.440001
O     18.860001   -10.090000    16.100002
H     17.100000    22.940002   -18.510000
H     18.860001    -9.530001    15.300001
O     16.850000    21.760002   -14.520000
S     15.830001    21.030003   -13.450001
O     14.630001    21.040001   -14.300001
O     16.590000    19.810001   -13.190001
O     15.640001    21.850002   -12.040001
H     16.430000    21.720001   -15.400001
H     16.049999    21.380001   -11.290001
O     21.990002    13.830000    14.830000
S     20.970001    12.580000    15.160000
O     20.350000    11.980000    13.980001
O     21.370001    11.880001    16.390001
O     19.610001    13.390001    15.620001
H     22.889999    13.600000    15.120001
H     19.290001    13.180000    16.520000
O     20.910000    22.090000   -14.770001
S     21.020000    20.950001   -13.580000
O     21.940001    19.960001   -14.160000
O     21.119999    21.880001   -12.460001
O     19.520000    20.280001   -13.670001
H     20.620001   -12.650002   -14.540001
H     19.020000    20.620001   -12.900001
O     24.760000    18.100000    11.330000
S     23.170002    17.680000    11.490001
O     22.889999    16.260000    11.250000
O     22.730000    18.240002    12.770000
O     22.530001    18.540001    10.250001
H     25.310001    17.300001    11.450001
H     21.740000    18.140001     9.840000
O     48.670002    17.260000   -11.130000
S     14.490002    17.310001   -10.380001
O     14.440001    16.220001    -9.400001
O     15.300001    17.640001   -11.550001
O     49.970001    18.560001    -9.320001
H     48.510002    16.330002   -11.360001
H     15.210000    18.980001    -9.270000
O     25.890003    21.590002    14.930000
S     25.940001    21.130001    13.350000
O     27.190001    20.380001    13.170000
O     24.690001    20.370003    13.300000
O     25.750000    22.420002    12.340001
H     26.670000    21.550003    15.510001
H     26.410000    22.730000    11.700001
O     18.550001    19.650002   -16.240002
S     17.440001    19.890001   -17.490002
O     16.150002    19.810001   -16.740000
O     17.570002    21.160002   -18.250000
O     17.790001    18.770000   -18.410000
H     18.720001    20.510002   -15.760001
O     23.580000    13.460001   -16.310001
S     24.250002    14.780001   -17.130001
O     25.690001    14.470000   -17.300001
O     23.380001    14.740001   -18.340000
O     24.050003    15.840001   -16.100002
H     22.640001    13.340001   -16.600000
O     21.610001    20.820000   -17.750000
S     23.220001    20.420000   -17.430000
O     22.970001    19.040001   -16.910002
O     23.890001    20.380001    16.870001
O     23.950003    21.250000   -16.440001
H     21.350000    21.720001   -17.380001
O     20.750000    16.310001   -16.350000
S     19.770000    14.930000   -16.230000
O     20.700001    13.810000   -16.530001
O     19.160002    14.920001   -14.880000
O     18.780001    15.170001   -17.320002
H     21.680002    15.930000   -16.400002
O     20.320000    20.559999    10.510000
S     20.260000    21.500000    11.910001
O     21.600000    21.270000    12.530001
O     19.980001    22.910002    11.540001
O     19.190002    21.020000    12.830001
H     19.980001    19.650002    10.760001
O     47.610001    12.860001   -10.670000
S     46.840000    14.320001   -11.000000
O     47.270004    15.110001    -9.810000
O     47.530003    14.730000   -12.260000
O     45.400005    13.930000   -11.080000
H     48.200001    12.780001   -11.480000
