160
NATURAL shell-small 4H_R_4H_S_k1 HSO=4 HHS=15 H3O=1
N      7.780001    19.890001    24.940002
C      8.720000    20.980000    25.270002
C      9.460000    20.760002    26.590002
C      9.780001    21.200001    24.209999
O     10.230000    22.490002    24.180002
N     10.200001    20.370003    23.110001
C     11.030001    20.940001    22.040001
C     12.520000    21.140001    22.299999
C     10.910001    20.130001    20.770000
O     10.480001    18.840000    20.900002
O     11.120001    20.580002    19.500000
H      7.000000    19.770000    25.580002
H      7.360001    19.980001    24.030001
H      8.090000    21.860001    25.400002
H     10.670000    19.540001    23.440001
H     10.590000    21.910002    21.770000
H     11.060000    21.520002    19.410002
H     10.240001    21.490002    26.770000
H      9.870001    19.750002    26.680002
H      8.740000    20.840000    27.410002
H     13.080001    21.400002    21.400002
H     12.900001    20.150002    22.560001
H     12.730000    21.950001    23.000002
H      8.220000    18.980001    24.880001
H      9.740001    23.070002    24.740002
H     10.490000    18.290001    20.130001
H      9.430000    19.930002    22.610001
O     15.700001    20.900002    20.850000
S     16.230000    21.290001    22.360001
O     15.760001    20.220001    23.260002
O     17.660000    21.390001    22.040001
O     15.540000    22.750000    22.680000
H     16.420000    20.530003    20.320000
H     16.160000    23.490002    22.780001
O     11.530000    24.130001    16.240002
S     10.570001    22.790001    16.160000
O     11.200000    21.809999    17.050001
O      9.240000    23.420000    16.250002
O     10.790000    22.200001    14.640001
H     11.060000    24.930000    16.500000
H     10.010000    22.020000    14.090000
O     13.270000    20.130001    14.680000
S     14.530001    20.430000    15.700001
O     15.110001    21.660002    15.150002
O     14.240000    20.160000    17.120001
O     15.600000    19.270000    15.250001
H     12.470001    19.790001    15.120001
H     15.880001    18.820002    16.060001
O      7.550001    16.630001    28.960001
S      8.030001    16.930000    27.410002
O      7.810000    15.670000    26.690002
O      7.540000    18.280001    27.130001
O      9.650001    17.190001    27.610001
H      6.780000    16.049999    29.060001
H     10.160000    16.460001    27.230000
O     14.590001    24.030001    25.520000
S     12.970000    24.340000    25.400002
O     12.550001    24.120003    24.010000
O     12.350000    23.420000    26.350002
O     12.850000    25.880001    25.970001
H     14.870001    23.470001    26.260002
H     12.440001    26.440001    25.270002
O     14.370001    18.140001    21.900002
S     14.100000    17.690001    20.340002
O     15.290001    17.150000    19.680000
O     12.800001    17.020000    20.420000
O     13.630000    19.010002    19.470001
H     15.060000    17.610001    22.310001
H     14.100000    19.220001    18.640001
O     11.160001    19.770000    32.140003
S     11.350001    20.270002    30.590002
O     11.950001    21.610001    30.540001
O     11.710000    18.950001    30.050001
O      9.800000    20.400002    30.030003
H     11.630001    20.250000    32.840000
H      9.110001    20.240002    30.690002
O      8.730000    23.570002    29.300001
S      7.490000    24.310001    30.110001
O      7.020000    23.420000    31.170002
O      8.020000    25.630001    30.460003
O      6.350000    24.360001    28.930000
H      9.550000    23.860001    29.730000
H      5.400000    24.240000    29.130001
O     12.850000    19.310001    27.340002
S     13.420000    20.140001    26.040001
O     12.200001    20.600002    25.370003
O     14.490002    21.119999    26.230001
O     13.900002    18.820002    25.190001
H     13.490001    19.460001    28.060001
H     14.860001    18.900002    25.060001
O      4.750000    17.200001    22.420002
S      5.800000    16.430000    23.440001
O      6.270000    17.460001    24.380001
O      5.190001    15.180001    23.890001
O      7.120000    16.170002    22.490002
H      3.810000    17.060001    22.600000
H      7.820001    15.790001    23.040001
O      6.410000    16.000000    19.610001
S      6.850000    17.440001    18.950001
O      8.060000    17.940001    19.630001
O      7.000000    17.240002    17.510000
O      5.700001    18.460001    19.530001
H      6.650000    15.700001    20.500002
H      6.090000    19.250000    19.950001
O      9.690001    16.930000    15.720000
S     10.100000    18.320002    16.510000
O     10.360001    18.180000    17.950001
O     11.200000    18.610001    15.590000
O      8.980000    19.410002    16.000000
H      9.500000    16.280001    16.410000
H      8.690001    19.940001    16.770000
O      5.140000    20.350000    26.070002
S      5.170000    20.770000    27.660000
O      6.470000    21.240002    28.140001
O      3.990000    21.639999    27.600002
O      4.980000    19.290001    28.360003
H      4.250000    20.559999    25.720001
H      5.630000    19.110001    29.060001
O     14.470000    24.480001    19.750002
S     14.430000    23.440001    18.480000
O     15.710001    22.800003    18.180000
O     13.450001    22.410002    18.810001
O     14.380001    24.290001    17.060001
H     14.030001    25.350000    19.650002
H     13.530001    24.090002    16.630001
O      3.130000    23.810001    25.170002
S      4.670000    24.390001    25.090000
O      5.510000    23.520000    25.920000
O      4.890000    24.790001    23.700001
O      4.820000    25.880001    25.770000
H      2.670000    24.220001    24.420002
H      5.540000    25.990002    26.410000
O     11.700001    18.090002    23.650000
S     10.490000    16.950001    23.960001
O     10.990001    15.970001    24.960001
O      9.330000    17.800001    24.360001
O     10.380001    16.510000    22.540001
H     12.550001    17.830002    24.100000
O     10.040001    24.560001    21.530001
S     10.650001    24.710003    19.970001
O     10.970000    23.290001    19.680000
O      9.480000    25.150002    19.150002
O     11.820001    25.630001    19.870001
H     10.400001    25.270002    22.139999
O      9.350000    23.930000    26.360001
S      8.750001    25.150002    25.360001
O      8.280001    24.320002    24.209999
O      7.720000    25.870001    26.150000
O      9.960001    25.950001    25.020000
H      9.130000    24.209999    27.299999
O      6.880000    21.910002    22.920000
S      7.180000    21.170002    21.430000
O      5.860000    21.210001    20.750000
O      8.310000    22.030001    20.960003
O      7.690001    19.900002    22.030001
H      5.950000    22.240002    22.810001
O      7.200000    24.670000    20.840000
H      7.420001    24.640003    19.890001
H      7.350000    25.590000    21.110001
H      7.690001    23.970001    21.300001
