177
Matched composition class
C     13.560000    15.750000    20.880001
C     14.500000    16.530001    20.350000
C     15.770000    16.420000    20.750000
O     16.800001    17.260000    20.400002
O     16.230000    15.530001    21.680002
H     13.850001    14.950001    21.550003
H     12.530001    15.840001    20.540001
H     14.250001    17.190001    19.530001
H     16.740000    17.350002    19.460001
H     16.960001    15.880001    22.170000
C     20.850000    16.590000    15.510001
C     21.090002    17.990002    16.080000
C     21.060001    19.090000    15.050001
N     22.220001    19.850002    14.470000
O     19.900002    19.130001    14.320001
N     20.320000    18.350000    17.280001
H     21.490002    16.470001    14.640001
H     21.020000    15.750000    16.190001
H     19.860001    16.470001    15.080000
H     22.130001    17.960001    16.410000
H     22.410002    20.750000    14.890001
H     23.160002    19.480001    14.510001
H     21.930000    20.010002    13.520001
H     19.120001    18.780001    14.740001
H     20.410002    19.350000    17.390001
H     19.350000    18.050001    17.250000
H     20.740002    17.920000    18.090002
O     46.910000    14.880000   -12.850000
S     46.430000    16.460001   -12.840000
O     47.460003    17.320002   -12.270001
O     46.090004    16.340000   -14.260001
O     45.020004    16.220001   -12.020000
H     47.760002    14.730000   -12.400000
H     45.010002    16.920000   -11.340000
O     47.310005    13.610001   -16.500000
S     48.330002    13.420000   -17.780001
O     49.070000    14.680000   -17.770000
O     48.690002    11.990000   -17.820000
O     47.280003    13.720001    16.680000
H     47.390003    12.730000   -16.080000
H     47.470001    13.100000    15.960001
O     22.510002    13.720001   -17.910002
S     23.950003    13.760000    16.980001
O     24.480001    14.950001   -18.050001
O     24.630001    12.470001    16.860001
O     23.520000    14.160000    15.440001
H     22.420002    14.350000   -17.170002
H     24.170000    13.750001    14.860001
O     15.900001    12.200001   -13.730000
S     14.620000    11.250000   -14.140000
O     49.310001    12.120000   -14.770001
O     14.950001    10.050000   -14.930000
O     49.780003    10.770000   -12.660000
H     16.830002    11.950001   -13.850001
H     49.790001     9.800000   -12.560000
O     17.700001    18.730001    10.380001
S     17.210001    19.960001    11.360001
O     18.280001    20.810001    11.900001
O     15.900001    20.389999    10.880001
O     16.970001    19.310001    12.850000
H     18.500002    18.780001     9.830000
H     16.010000    19.220001    12.940001
O     17.070002    13.830000   -18.250000
S     18.540001    13.430000   -17.600000
O     18.440001    11.990000   -17.330000
O     19.640001    13.950001   -18.420002
O     18.390001    14.160000   -16.140001
H     17.280001    14.510001    16.780001
H     19.240002    14.610001   -16.020000
O     25.350000    22.480001   -18.230001
S     26.110001    21.970001    16.100002
O     25.180000    21.070002    15.410002
O     26.760002   -12.580000    15.450001
O     27.430000    21.140001    16.639999
H     24.390001    22.500000   -18.390001
H     27.350002    20.370003    16.049999
O     25.780001   -12.220000    12.540001
S     24.450001    22.680000    11.970000
O     23.850002    22.230000    13.230000
O     23.850002   -11.940001    11.170001
O     25.180000    21.600000    10.970000
H     26.700001   -12.390001    12.290001
H     24.770002    21.620003    10.090000
O     15.860001    13.470001   -10.500001
S     14.580001    14.480000   -10.290001
O     49.340000    14.430000   -11.420001
O     49.760002    14.480000    -8.910000
O     15.350000    15.900001   -10.620001
H     15.550001    12.760000   -11.100000
H     15.400001    16.580002    -9.930000
O     16.080000    22.800003    16.010000
S     16.150002    21.430000    15.100001
O     15.710001    21.590002    13.710001
O     17.570002    21.090002    15.230001
O     15.280001    20.100000    15.530001
H     15.620001   -12.240001    15.450001
H     15.800000    19.360001    15.910001
O     19.930002    18.340000   -11.770000
S     18.340000    17.970001   -11.580001
O     17.500002    19.170000   -11.470001
O     18.140001    16.910002   -12.570001
O     18.400000    16.950001   -10.290001
H     20.100000    19.260002   -12.030001
H     18.140001    16.020000   -10.370001
O     18.020000    22.270000   -16.850000
S     17.710001    20.770000   -16.250002
O     18.140001    19.720001   -17.170002
O     17.990002    20.970001   -14.820002
O     16.090000    20.840000   -16.560001
H     18.750002    22.110003   -17.460001
H     15.710001    21.020000   -15.680000
O     15.700001    20.690001   -13.110001
S     14.490002    19.580000   -13.220000
O     50.070004    19.530001   -14.680000
O     14.840001    18.330000   -12.550001
O     48.910004    20.410002   -12.570001
H     16.390001    20.250000   -12.580000
H     48.460003    19.920002   -11.860001
O     18.030001    16.410000    13.160001
S     19.240002    15.680000    12.310000
O     18.520000    15.070001    11.190001
O     20.150002    16.830002    12.190001
O     19.840000    14.500000    13.290001
H     17.260000    16.260000    12.580000
H     19.640001    13.570002    13.110001
O     47.020000    17.210001   -17.200001
S     46.420002    18.740002   -17.140001
O     47.450005    19.590000   -17.750000
O     44.970001    18.740002   -17.320002
O     46.860004    19.020000   -15.580001
H     47.400002    16.820000   -18.000000
H     46.020004    19.190002   -15.120001
O     21.270000   -11.580001    12.990000
S     20.100000   -12.290001    13.900002
O     20.540001    22.020000    14.100000
O     19.740002   -11.460000    15.050001
O     18.750002   -12.300000    12.960000
H     21.480000   -10.790000    13.520001
H     18.300001    22.540001    12.890000
O     19.150002    14.000001   -10.620001
S     19.520000    13.570002   -12.170000
O     20.370003    12.380000   -12.180000
O     18.210001    13.360001   -12.790001
O     20.240002    14.940001   -12.720001
H     19.740002    13.610001    -9.950001
H     20.889999    14.810000   -13.430000
O     24.270000    18.700001    13.160001
S     25.000000    17.530001    14.060000
O     26.450003    17.680000    14.190001
O     24.080002    17.540001    15.200001
O     24.580002    16.380001    12.960000
H     24.950001    19.070000    12.560000
H     25.370003    15.820000    12.970000
O     15.760001    17.780001   -18.480000
S     17.200001    17.220001    16.540001
O     17.990002    16.720001   -17.990002
O     16.930000    16.030001    15.680000
O     17.710001    18.370001    15.740002
H     15.070001    17.140001    16.870001
O     22.260000    20.310001   -18.000000
S     21.740000    21.920002   -18.040001
O     20.290001    21.680002   -18.290001
O     22.030001    22.460001   -16.680000
O     22.480001    22.570002    16.540001
H     22.680000    20.000000   -17.150000
O     19.850002    17.490002   -15.340000
S     21.320002    16.660002   -15.410002
O     20.770000    15.290001   -15.640001
O     22.080002    17.190001   -16.570000
O     21.790001    16.940001   -14.020000
H     19.720001    17.410000   -14.360001
O     20.600002    19.440001    10.110001
S     22.180002    19.920002    10.450001
O     21.910002    20.500002    11.800001
O     22.860001    18.610001    10.320001
O     22.580002    21.020000     9.520000
H     20.400002    19.550001     9.140000
