173
Fixed stoichiometry; tier=candidate pool size for filling class
N     12.730000    24.070000    23.830002
C     12.310000    23.800001    22.440002
C     13.480000    23.540001    21.500000
C     11.310000    22.680000    22.240002
O     10.670000    22.520000    21.040001
N     11.130000    21.600000    23.190001
C     10.480001    20.310001    22.940002
C     11.360001    19.450001    22.030001
C     10.340000    19.590000    24.260002
O     11.430000    19.050001    24.880001
O      9.170000    19.530001    24.980001
H     11.950001    24.130001    24.460001
H     13.300000    23.360003    24.260002
H     11.710000    24.650002    22.120001
H     11.970000    21.560001    23.750000
H      9.480000    20.420000    22.510002
H      8.390000    19.830000    24.540003
H     14.020000    22.600000    21.520002
H     14.290000    24.170000    21.860001
H     13.240002    23.860001    20.480001
H     10.870000    18.510000    21.770000
H     12.350000    19.070000    22.270000
H     11.310000    20.000000    21.080000
H     13.200001    24.950001    23.940001
H     10.660001    23.200001    20.389999
H     11.250000    18.700001    25.740002
H     10.480001    22.080002    23.780001
O     18.930000    26.550003    21.540001
S     17.930000    25.820000    20.459999
O     16.650002    25.520000    21.090002
O     18.270000    26.460001    19.190002
O     18.880001    24.550001    19.990002
H     18.420002    26.770000    22.340002
H     18.340000    23.740002    19.970001
O      9.800000    21.180000    18.680000
S      8.520000    20.180000    18.930000
O      8.510000    19.120001    17.910002
O      8.930000    19.880001    20.300003
O      7.020000    20.850000    18.960001
H     10.300001    20.970001    17.870001
H      6.560000    20.230000    18.380001
O     18.690001    21.680002    20.750000
S     17.530001    21.530001    21.910002
O     16.300001    21.170002    21.200001
O     17.930000    20.690001    23.040001
O     17.110001    23.070002    22.340002
H     19.480001    21.110001    20.820000
H     17.040001    23.190001    23.300001
O     11.830001    15.070001    20.150002
S     10.440001    15.920001    20.389999
O     10.170001    16.090000    21.820002
O     10.780001    16.990002    19.450001
O      9.090000    15.240001    19.740002
H     12.520000    15.470000    19.590000
H      8.280001    15.680000    20.060001
O     11.140001    20.430000    30.280001
S     12.080001    21.490002    29.440002
O     13.540001    21.420002    29.410002
O     11.430000    21.300001    28.140001
O     11.810001    22.959999    30.140001
H     11.600000    19.610001    30.500002
H     12.690001    23.360003    30.200003
O      8.670000    20.440002    28.000002
S      7.680000    21.740000    28.200001
O      6.730000    20.880001    28.910000
O      8.280001    22.840002    28.950003
O      7.130001    22.030001    26.670000
H      9.570000    20.690001    28.280001
H      7.380000    22.959999    26.530001
O     14.980000    23.540001    18.250000
S     16.390001    23.240002    17.460001
O     16.970001    24.530001    17.060001
O     17.110001    22.280003    18.300001
O     15.900001    22.660000    16.000000
H     14.820002    24.480001    18.450001
H     16.240002    23.059999    15.180001
O      9.930000    14.670001    24.740002
S      8.290001    14.600000    24.680002
O      7.940001    15.950001    25.130001
O      8.040000    13.960000    23.390003
O      7.870001    13.670001    25.980000
H     10.330000    14.740001    23.860001
H      7.230000    12.990000    25.710001
O     14.330001    19.410002    20.450001
S     13.850001    20.150002    19.060001
O     13.080001    21.360001    19.340002
O     14.780001    19.840000    17.960001
O     12.480000    19.270000    18.810001
H     15.280001    19.230001    20.559999
H     12.330000    18.860001    17.950001
O     13.250000    16.850000    27.330000
S     13.450001    18.200001    28.260002
O     12.830001    19.100000    27.280003
O     13.090000    18.110001    29.680002
O     15.030001    18.630001    28.080002
H     12.700001    16.230000    27.840002
H     15.500001    18.460001    28.920002
O      5.720000    18.640001    20.850000
S      6.770000    17.630001    21.630001
O      7.210000    16.970001    20.400002
O      7.590001    18.220001    22.690001
O      5.750000    16.510000    22.270000
H      5.880000    19.600000    20.910000
H      5.630000    16.610001    23.230001
O      8.150001    17.360001    27.850000
S      9.720000    16.860001    27.880001
O      9.560000    15.470000    28.300001
O     10.400001    17.520000    26.760002
O     10.260000    17.700001    29.190002
H      7.730000    17.020000    27.030001
H     10.720000    17.090000    29.790001
O     12.720001    26.320002    28.110001
S     14.040001    25.470001    27.650002
O     13.810000    24.810001    26.360001
O     15.200001    26.320002    27.940002
O     14.110001    24.150002    28.640001
H     12.140001    26.580002    27.370003
H     15.030001    24.190002    28.970001
O      4.260000    18.000000    26.750002
S      4.850000    19.090000    25.660002
O      4.120000    20.350000    25.860003
O      6.310000    18.930000    25.620001
O      4.330000    18.480000    24.220001
H      3.790000    18.430000    27.480001
H      3.630000    18.830002    23.650000
O     15.070001    14.960001    23.360003
S     14.210001    16.220001    23.990002
O     15.120001    17.070002    24.770002
O     13.700001    16.780001    22.740002
O     12.720001    16.010000    24.670000
H     14.620000    14.150001    23.640001
H     12.650002    16.330002    25.590000
O     12.980001    27.990000    18.670002
S     14.110001    27.310001    19.670002
O     14.190001    25.970001    19.080002
O     15.190001    28.150002    20.200001
O     13.240002    26.760002    20.950001
H     13.230000    28.880003    18.350000
H     13.400001    27.200001    21.800001
O     13.080001    21.690002    25.320000
S     14.460001    21.200001    24.470001
O     13.760000    20.760002    23.230001
O     15.120001    22.520000    24.390001
O     15.160000    20.070002    25.160000
H     13.300000    21.530001    26.290001
O      8.230000    23.040001    22.200001
S      6.860001    22.240002    22.780001
O      5.840001    23.020000    23.540001
O      6.160001    21.680002    21.590002
O      7.500000    21.170002    23.600002
H      7.990000    24.000000    22.340002
O      9.810000    25.270002    20.640001
S      9.980000    24.950001    18.990000
O      8.650001    24.300001    18.890001
O     10.020000    26.300001    18.360001
O     11.210001    24.120003    18.850000
H      9.770000    26.270000    20.690001
O     14.670001    26.490002    23.880001
S     13.530001    27.730003    24.060001
O     13.780001    28.250000    25.440002
O     13.540001    28.690002    22.920000
O     12.280001    26.930000    24.100000
H     15.290001    26.390001    24.650002
O     10.940001    24.490002    26.320002
S      9.560000    24.139999    25.400002
O      8.440001    24.670000    26.230001
O      9.980000    24.920002    24.200001
O      9.600000    22.670002    25.170002
H     10.530001    24.830000    27.160000
O      6.120000    23.830002    19.880001
H      5.420001    23.900002    19.210001
H      6.360001    22.910002    20.100000
H      6.920000    24.250002    19.510000
