177
Matched composition class
N      9.410001    17.990002    24.150002
C     10.020000    19.270000    24.530001
C     11.110001    19.139999    25.590000
C     10.470000    20.110001    23.360003
O      9.980000    21.390001    23.250000
N     10.950001    19.610001    22.090000
C     11.300000    20.400002    20.900002
C     12.510000    21.330002    21.060001
C     11.500001    19.490002    19.710001
O     12.400000    18.450001    19.780001
O     11.020000    19.820002    18.470001
H      8.720000    17.710001    24.840002
H      8.800000    18.060001    23.350000
H      9.180000    19.780001    25.010002
H     11.670000    18.920000    22.250002
H     10.450001    21.049999    20.750000
H     10.750000    20.720001    18.360001
H     10.710001    18.920000    26.580002
H     11.680001    20.060001    25.690001
H     11.890000    18.430000    25.330002
H     13.310001    20.860003    21.630001
H     12.310000    22.260000    21.580000
H     12.890000    21.590002    20.070002
H     10.030001    17.200001    24.030001
H      9.540001    21.760002    24.000000
H     12.470001    17.940001    18.990000
H     10.120001    19.100000    21.820002
O      8.920000    24.880001    23.820002
S      7.700000    24.380001    22.820000
O      6.780000    23.480000    23.520000
O      7.500000    25.500002    21.900002
O      8.390000    23.150002    21.960001
H      8.500000    24.740002    24.680002
H      8.180000    23.300001    21.020000
O      6.930000    16.880001    16.240002
S      6.650000    17.760002    17.600000
O      7.780001    17.580002    18.510000
O      6.600000    19.060001    16.920000
O      5.200000    17.220001    18.170000
H      7.890000    16.720001    16.200001
H      5.100000    17.500002    19.090000
O      9.400001    19.650002    15.740002
S     10.040001    18.600002    14.640001
O     10.720000    17.610001    15.490000
O      8.800000    18.270000    13.930000
O     11.120001    19.350000    13.640001
H      8.430000    19.760000    15.680000
H     11.830001    18.730001    13.430000
O     15.320001    24.100000    20.580002
S     16.520000    22.970001    20.600002
O     16.420000    22.550001    19.200001
O     17.700001    23.220001    21.440001
O     15.850000    21.600000    21.220001
H     15.550001    24.890001    21.100002
H     16.540001    21.180000    21.760002
O     12.820001    15.590000    15.300001
S     13.690001    16.650002    16.210001
O     14.260001    17.350002    15.060000
O     12.950001    17.130001    17.380001
O     14.890001    15.740002    16.890001
H     11.870001    15.550001    15.490000
H     14.960001    15.760001    17.860001
O      6.210001    18.680000    28.940001
S      7.720000    18.030001    28.840000
O      8.120001    18.100000    27.440002
O      8.520000    18.690001    29.880001
O      7.590001    16.450001    29.290001
H      5.860000    19.200001    28.200001
H      7.890000    16.280001    30.200003
O     14.250001    15.400001    26.510000
S     15.490000    16.470001    26.390001
O     16.690001    16.090000    25.630001
O     14.740001    17.710001    26.190002
O     15.820000    16.240002    27.990000
H     14.360001    14.840001    25.720001
H     15.680000    17.080000    28.470001
O     12.540001    25.670002    23.980000
S     12.100000    26.330002    22.540001
O     10.760001    26.880001    22.780001
O     13.300000    27.010002    22.070000
O     11.700001    25.020000    21.620003
H     13.410001    26.110001    23.990002
H     11.100000    25.170002    20.870001
O     12.980001    16.240002    29.330002
S     11.470001    16.740000    28.910000
O     10.530001    16.100002    29.830000
O     11.410000    18.200001    29.020002
O     11.380000    16.450001    27.290001
H     13.540001    16.960001    29.680002
H     10.490000    16.180000    27.000000
O     12.300000    21.000002    16.140001
S     13.880000    21.140001    16.590000
O     14.450001    22.450001    16.290001
O     13.780001    20.690001    17.990002
O     14.590001    20.050001    15.580001
H     11.890000    21.840000    15.870001
H     15.230001    20.340002    14.900002
O     15.940001    19.080002    18.870001
S     16.230000    17.830002    19.900002
O     15.270000    16.830002    19.440001
O     17.670000    17.660000    20.120001
O     15.300001    18.220001    21.200001
H     16.760002    19.510000    18.580000
H     15.870001    18.110001    21.990002
O      5.010000    16.550001    26.650002
S      5.400000    16.800001    25.070002
O      6.780000    17.280001    25.190001
O      5.200000    15.750000    24.070000
O      4.460000    18.050001    24.550001
H      4.600000    15.680000    26.760002
H      3.950000    18.330000    25.330002
O     13.570002    22.560001    26.150000
S     14.190001    22.090000    24.700001
O     12.960000    21.540001    24.110001
O     15.150002    22.970001    24.030001
O     14.630001    20.500002    24.680002
H     14.050001    23.350000    26.430000
H     15.510001    20.290001    24.320002
O     10.060000    13.270000    25.670002
S      8.740000    14.200001    26.010000
O      9.170000    15.600000    26.000002
O      7.490000    13.660001    25.470001
O      8.800000    14.040001    27.650002
H      9.840000    12.800001    24.850002
H      7.940001    13.600000    27.790001
O     10.630001    15.490000    19.080002
S     11.130000    14.090000    18.380001
O     12.580000    14.130001    18.580000
O     10.230000    12.960000    18.670002
O     10.820000    14.620000    16.850000
H     10.230000    15.460001    19.970001
H     10.250001    14.100000    16.270000
O      7.450001    15.360001    20.680000
S      7.920001    14.690001    22.110003
O      9.060000    13.890000    21.680002
O      7.990000    15.720000    23.150002
O      6.880000    13.490001    22.550001
H      7.470000    16.300001    20.930002
H      6.320000    13.850001    23.250000
O     12.930001    26.220001    19.010002
S     13.020000    25.040001    17.860001
O     14.200001    25.040001    16.990002
O     12.620001    23.860001    18.630001
O     11.720000    25.389999    16.910002
H     13.670001    26.840000    18.910000
H     11.030001    24.700001    16.910002
O      5.000000    20.640001    27.610001
S      5.490000    21.210001    26.140001
O      5.640000    22.650002    26.390001
O      6.530001    20.200001    25.930002
O      4.230000    20.860003    25.150002
H      5.130000    21.360001    28.240002
H      4.270000    21.570000    24.480001
O     12.630000    17.660000    22.810001
S     11.760000    16.230000    22.630001
O     11.200000    15.720000    23.920002
O     10.690001    16.790001    21.750002
O     12.650002    15.220001    22.000000
H     13.580000    17.480000    22.560001
O      7.680000    21.890001    17.130001
S      8.770000    23.000002    17.790001
O      9.920000    22.210003    18.310001
O      9.250001    23.960001    16.760002
O      8.110001    23.590002    18.990000
H      7.940001    21.780003    16.170002
O     10.790000    23.560001    26.470001
S      9.520000    22.530001    26.890001
O      8.650001    23.510000    27.600002
O      8.990001    22.270000    25.520000
O      9.870001    21.280001    27.630003
H     11.640000    23.200001    26.850002
O      7.420001    19.800001    23.030003
S      7.320001    19.330002    21.410000
O      5.910000    18.900002    21.190002
O      7.880001    20.500002    20.690001
O      8.370000    18.270000    21.470001
H      6.510000    20.070002    23.370001
