416
NATURAL 3H_P_A2O_k0 t=880.0 HSO=6 HHS=50 H3O=1
C     15.280001    22.850000    17.820000
C     16.300001    23.150002    18.630001
C     17.570002    22.770002    18.410000
O     18.440001    22.970001    19.440001
O     18.070000    22.090000    17.330000
H     15.500001    22.310001    16.910002
H     14.230001    23.030003    17.980001
H     16.160000    23.620003    19.590000
H     19.150002    22.360001    19.340002
H     18.240002    22.730000    16.650002
C     18.190001    15.020000    16.960001
C     18.900002    15.220001    18.300001
C     19.660000    13.950001    18.590000
N     18.970001    12.870001    19.100000
O     21.020000    14.050001    18.450001
N     19.750002    16.420000    18.270000
H     17.470001    15.820000    16.790001
H     18.840000    15.190001    16.100002
H     17.660000    14.070001    16.950001
H     18.160002    15.350000    19.090000
H     19.430000    12.080001    19.530001
H     17.970001    12.900001    18.960001
H     21.460001    13.230000    18.520000
H     20.550001    16.320002    17.660000
H     19.160002    17.180000    17.960001
H     20.090000    16.630001    19.200001
O    -10.950001    53.209999   -12.840000
S    -11.120001    19.080002   -13.340001
O    -12.310000    18.990000   -14.180001
O    -11.160001    19.860001   -12.100000
O     -9.730000    19.590000   -14.080001
H    -11.370001    52.560001   -13.430000
H    -10.000000    19.780001   -14.990001
O    -12.770000    22.660000   -14.330001
S    -11.190001    23.130001   -14.400001
O    -11.060000    24.500000   -14.880000
O    -10.450001    22.660000   -13.220000
O    -10.890001    22.070000   -15.630001
H    -13.380001    23.410000   -14.350000
H    -10.680000    22.630001   -16.390001
O     16.380001    27.090000   -17.020000
S     17.250000    26.730001    17.320002
O     17.790001    27.920000    16.670000
O    -17.380001    25.810001    17.750000
O     16.120001    26.030003    16.340000
H     16.300001    28.060001   -17.050001
H     16.320002    25.150002    15.990001
O     15.710001    45.680004    15.880001
S     17.250000    46.000004    16.380001
O     18.120001    45.160004    15.560001
O     17.370001    47.460003    16.290001
O     17.340000    46.030003    18.030001
H     15.610001    44.739998    15.660001
H     17.990002    45.410004   -17.290001
O    -11.580001    50.690002   -15.480001
S    -11.490001    51.670002   -16.800001
O    -10.830001    50.919998    17.830002
O    -12.810000    52.240005   -17.100000
O    -10.700001    52.970005   -16.160000
H    -11.570001    49.760002   -15.760001
H     -9.790000    53.050003   -16.490000
O    -14.170000    24.139999    -9.720000
S    -12.900001    23.400002   -10.490000
O    -11.860001    23.000002    -9.540001
O    -13.540001    22.530001   -11.480000
O    -12.190001    24.560001   -11.420001
H    -14.940001    23.549999    -9.820001
H    -11.250000    24.440001   -11.630001
O    -10.690001    46.870003   -17.230000
S    -11.000000    47.450005    16.960001
O    -10.860001    46.330002    16.030001
O    -12.190001    48.300003    17.150000
O     -9.760000    48.520004    16.800001
H    -10.580001    45.900002   -17.210001
H     -9.890000    49.470001    16.610001
O     10.460000    24.200001    12.050000
S     11.190001    24.170000    13.530001
O     10.770000    25.500002    13.990001
O     10.880001    23.030003    14.390000
O     12.820001    24.190002    13.740001
H      9.820001    23.460003    12.080001
H     13.360001    24.190002    12.930001
O     -9.200000    53.450005    17.190001
S     -9.380000    19.290001    16.620001
O     -8.070001    19.640001    16.060001
O    -10.610001    19.480001    15.850000
O     -9.770000    19.920002    18.090002
H     -8.380001    52.980003    16.940001
H    -10.720000    20.140001    18.100000
O     15.120001    47.270004    11.360001
S     16.120001    46.380001    12.330000
O     16.600000    47.380005    13.290001
O     15.400001    45.140003    12.610001
O     17.500002    45.990005    11.530000
H     14.370001    46.770000    11.000000
H     17.590000    45.030003    11.520000
O     12.600001    47.620003    16.420000
S     11.900001    49.090004    16.700001
O     12.770000    49.760002    17.670000
O     11.710000    49.850002    15.460001
O     10.580001    48.530003    17.490002
H     12.900001    47.860001    15.530001
H     10.630001    48.740002   -17.250000
O    -17.170002    19.750002   -13.890000
S    -15.680000    20.430000   -13.730000
O    -14.830000    19.520000   -12.960000
O    -15.540000    21.110001   -15.020000
O    -16.310001    21.610001   -12.770000
H    -17.250000    18.950001   -13.330001
H    -15.970001    21.580000   -11.860001
O    -15.870001    53.190002    11.560000
S    -17.090000    54.110001    10.960001
O    -16.920000    19.800001    11.440001
O    -17.410000    53.780003     9.570000
O     17.280001    53.780003    11.880001
H    -15.400001    52.820000    10.790000
H     16.570000    53.510002    11.280001
O    -14.400001    46.520004   -15.910001
S    -13.170000    47.000004   -14.930000
O    -12.250000    45.940002   -14.490002
O    -12.820001    48.290001   -15.520000
O    -14.340000    47.250004   -13.800001
H    -14.080001    45.680004   -16.290001
H    -14.000001    47.160000   -12.900001
O     12.130001    25.880001    16.520000
S     12.680000    26.240002    18.030001
O     13.690001    25.320000   -17.120001
O     12.540001    27.690001    18.190001
O     11.390000    25.790003   -16.740000
H     12.280001    26.670000    15.990001
H     11.660000    25.420000   -15.880001
O     14.580001    54.340004    14.470000
S     14.130001    20.230000    14.300001
O     13.090000    20.190001    13.270000
O     13.750001    20.840000    15.580001
O     15.610001    20.810001    13.870001
H     14.260001    54.040001    13.600000
H     15.610001    20.950001    12.910000
O     15.110001    25.220001   -11.970000
S     16.180000    25.470001   -13.190001
O     17.060001    26.620003   -12.970000
O     16.750000    24.240000   -13.730000
O     15.250001    26.080000   -14.400001
H     15.170001    25.520000   -11.050000
H     15.290001    25.810001   -15.330001
O     -9.180000    50.670006   -13.440001
S     -8.700001    49.120003   -13.730000
O     -9.850000    48.660004   -14.520000
O     -7.320001    49.180000   -14.200001
O     -8.990001    48.419998   -12.270001
H     -8.380001    51.180000   -13.660001
H     -8.160001    48.120003   -11.840000
O    -11.020000    29.560001   -15.820000
S    -11.870001    28.220001   -15.380001
O    -12.130001    28.300001   -13.940001
O    -13.090000    28.460003   -16.160000
O    -10.930000    27.070000   -16.090000
H    -10.660001    30.000002   -15.030001
H    -10.820000    26.220001   -15.620001
O     16.220001    21.140001   -13.250000
S     14.590001    21.260002   -13.000001
O     14.220000    20.740002   -11.680001
O     14.120001    22.530001   -13.540001
O     13.940001    20.350000   -14.210001
H     16.770000    21.170002   -12.450000
H     13.140000    19.920002   -13.850001
O    -14.480000    54.560005   -16.670000
S    -13.740001    19.950001    18.030001
O    -14.880000    20.850000    17.840000
O    -12.380000    20.380001    18.370001
O    -13.420000    19.060001    16.680000
H    -13.890000    54.459999   -15.910001
H    -13.330001    19.740002    15.980000
O    -13.700001    51.240002    13.520001
S    -13.060001    51.290001    15.040001
O    -14.000001    51.270004    16.170002
O    -12.280001    50.100002    14.680000
O    -11.910001    52.460003    14.940001
H    -14.670001    51.330002    13.630000
H    -11.930000    52.889999    15.820000
O    -12.810000    24.830000    14.280001
S    -13.460001    25.480001    12.920000
O    -13.900002    26.830002    13.260001
O    -12.420001    25.250000    11.900001
O    -14.850000    24.700001    12.490001
H    -12.850000    25.580002    14.900002
H    -15.670000    25.210001    12.590000
O     10.030001    19.150002   -15.280001
S     10.150002    19.440001   -13.670001
O      8.730000    19.520000   -13.320000
O     10.930000    54.050003   -13.070001
O     10.940001    20.889999   -13.570002
H      9.940001    53.900002   -15.470000
H     10.390000    21.550003   -13.110001
O     14.750000    29.050003    15.720000
S     13.270000    29.450001    15.100001
O     12.610001    30.330002    16.070002
O     13.600000    30.050001    13.810000
O     12.260000    28.160002    15.010000
H     15.480001    29.550001    15.320001
H     12.130001    28.030003    14.050001
O     15.700001    23.320000    10.000000
S     16.240002    21.770000     9.820001
O     16.060001    21.280001    11.190001
O     15.560001    21.390001     8.590000
O     17.850000    21.860001     9.490001
H     14.980000    23.560001     9.390000
H     17.950001    21.530001     8.580000
O     11.770000    22.810001    17.070002
S     10.950001    21.990002    18.240002
O     10.270000    22.830000   -16.460001
O     10.080000    21.210001    17.360001
O     12.050000    21.040001   -16.670000
H     11.330000    22.730000    16.210001
H     11.880001    20.080002   -16.740000
O     16.500000    19.910000   -16.480001
S     15.930000    54.150005   -16.990002
O     17.020000    53.180004   -17.120001
O     14.660001    53.930000   -16.280001
O     15.780001    54.340004    17.070002
H     16.110001    20.080002   -15.600000
H     14.880000    54.100002    16.760002
O     15.190001    43.520004   -15.950001
S     13.680000    44.170002   -16.110001
O     12.610001    43.270000   -16.560001
O     13.350000    45.070004   -15.010000
O     13.580000    45.260002    18.350000
H     15.580001    43.790001   -15.100001
H     12.920000    45.130001    17.650002
O     17.370001    29.990002   -16.500000
S     16.380001    31.250002   -16.880001
O     17.090000    32.180000    17.920000
O     15.110001    30.630001   -17.270000
O     16.000000    31.980001   -15.450001
H    -17.450001    30.160000   -16.900002
H     16.300001    32.900002   -15.350000
O     12.930001    52.740002    16.780001
S     11.380000    53.290005    16.850000
O     10.360001    52.230000    16.850000
O     11.740000    54.110001    18.010002
O     11.140001    54.380001    15.640001
H     12.900001    51.820000    16.470001
H     10.360001    54.070000    15.140000
O    -12.920000    43.970001    16.110001
S    -12.790001    43.390003    17.640001
O    -13.430000    44.389999   -17.190001
O    -12.960000    41.940002    17.800001
O    -11.210001    43.540001    18.090002
H    -13.560000    43.480000    15.570001
H    -10.750000    42.680000    18.130001
O     17.530001    42.959999    18.170000
S    -16.520000    42.800003    18.160002
O    -15.950001    42.140003    16.980001
O    -16.130001    44.170002   -17.180000
O    -16.230000    42.099998   -16.070002
H     17.240002    42.460003    17.390001
H    -15.560001    41.390003   -16.020000
O    -13.290001    42.500000   -14.830000
S    -13.990001    42.510002   -13.340001
O    -14.860001    41.330002   -13.290001
O    -12.980001    42.470001   -12.280001
O    -14.980000    43.830002   -13.280001
H    -12.370001    42.810001   -14.820002
H    -14.990001    44.300003   -12.430000
O    -15.470000    50.560001    10.770000
S    -16.650002    49.870003    11.680001
O     17.889999    50.590000    11.140001
O    -16.590000    48.400002    11.750001
O    -16.460001    50.550003    13.170000
H    -14.810000    49.910004    10.470000
H    -17.340000    50.810005    13.480000
O     14.180001    27.050001    12.390001
S     15.740002    27.450001    12.040001
O     16.470001    26.639999    11.060000
O     15.730000    28.890001    11.790000
O     16.440001    27.510002    13.530001
H     13.880000    26.400002    11.730001
H     17.040001    26.750002    13.540001
O     18.060001    20.280001    15.250001
S    -17.160000    54.389999    15.320001
O    -16.570000    54.200001    16.650002
O     17.560001    53.370003    14.900002
O    -15.750000    53.950005    14.600000
H     17.260000    20.480001    14.740001
H    -15.450001    19.020000    14.080001
O     12.080001    24.030001   -14.400001
S     11.080000    24.680002   -13.270000
O      9.750000    24.080002   -13.300000
O     12.010001    24.810001   -12.140001
O     10.840001    26.220001   -13.790001
H     12.570001    23.260002   -14.060000
H     11.050000    26.870001   -13.090000
O    -13.090000    50.730003   -12.610001
S    -12.840000    49.580002   -11.460000
O    -11.970000    50.470005   -10.690001
O    -14.110001    49.000000   -11.000000
O    -11.940001    48.440002   -12.230000
H    -14.040001    50.610004   -12.740001
H    -10.970000    48.460003   -12.120000
O     14.790001    50.639999   -16.140001
S     15.050001    49.070000   -15.740002
O     16.280001    49.180000   -14.960001
O     13.840000    48.510002   -15.120001
O     15.720000    48.300003   -17.030001
H     13.880000    50.960003   -16.020000
H     15.310000    47.460003   -17.300001
O     16.290001    52.940002   -13.080001
S     14.830000    52.370003   -12.580000
O     14.900002    50.960003   -12.980001
O     14.780001    52.660004   -11.140001
O     13.650000    53.250004   -13.320000
H     16.900002    52.290001   -13.480000
H     13.180000    52.690002   -13.970001
O     17.580002    43.990002   -14.370001
S     17.960001    45.510002   -13.850001
O     18.140001    45.290001   -12.410001
O    -16.910002    46.160004   -14.870001
O     16.620001    46.360001   -14.300001
H    -17.400002    43.630005   -14.930000
H     16.370001    47.040001   -13.640001
O    -16.470001    54.420006   -10.700001
S     17.700001    54.480003   -10.070001
O     17.990002    19.420002    -8.780001
O     16.970001    19.610001   -11.030001
O     17.230000    52.930000    -9.770000
H    -16.150002    53.570004   -11.060000
H     16.370001    52.590004   -10.080000
O    -15.260000    46.180000    -9.170000
S    -14.130001    45.190002    -9.850000
O    -14.040001    45.670006   -11.240001
O    -12.960000    45.250000    -8.980000
O    -14.880000    43.780003   -10.270000
H    -14.860001    46.680000    -8.450001
H    -14.310001    43.100006    -9.880000
O    -14.340000    25.960003    17.580002
S    -14.440001    24.320002    17.640001
O    -14.620000    23.680000   -16.740000
O    -15.240001    23.990002    16.460001
O    -12.890000    23.960001    17.230000
H    -14.920001    26.200001    18.320002
H    -12.730000    23.240002    16.590000
O     13.870001    51.380001    13.860001
S     15.260000    50.730003    14.460001
O     16.590000    50.800003    13.870001
O     15.110001    51.100002    15.870001
O     14.810000    49.150005    14.620000
H     14.120001    51.350002    12.920000
H     15.570001    48.580002    14.410001
O    -15.670000    46.650005    13.510000
S    -14.860001    47.330002    14.770001
O    -15.470000    48.650002    15.010000
O    -14.930000    46.360001    15.870001
O    -13.270000    47.350002    14.370001
H    -16.410000    47.160000    13.150001
H    -12.870001    48.230003    14.280001
O    -16.170002    24.580002   -13.870001
S    -15.180001    25.820000   -14.290000
O    -13.830000    25.240002   -14.200001
O    -15.620001    26.600000   -15.450001
O    -15.400001    26.710003   -12.920000
H    -17.040001    24.570000   -14.300001
H    -15.600000    27.660000   -13.050001
O     16.890001    22.560001   -10.820000
S     18.100000    23.420000   -10.100000
O     17.450001    23.910000    -8.890000
O    -16.470001    22.480001   -10.020000
O    -17.320002    24.710003   -11.090001
H     16.090000    22.460001   -10.280000
H     18.170000    25.550001   -10.640000
O    -17.200001    48.450005   -12.190001
S     17.250000    49.040001   -11.280001
O     17.670000    48.640003    -9.930000
O     17.220001    50.450001   -11.680001
O     15.900001    48.340000   -11.910001
H    -16.760002    49.080006   -12.790001
H     15.070001    48.830002   -11.950001
O     11.070000    50.560001   -13.550000
S     11.020000    51.100002   -15.150002
O     12.310000    51.800003   -15.360001
O     10.830001    49.790001   -15.830001
O      9.860001    52.040005   -15.140000
H     11.940001    51.010002   -13.330001
O     14.310001    50.980000    11.210001
S     14.210001    52.510002    10.490000
O     15.380001    52.650002     9.590000
O     12.940001    52.600002     9.720000
O     14.290000    53.390003    11.690001
H     15.020000    50.420002    10.780001
O      6.470000    24.580002    16.840002
S      7.530000    23.730001    15.830001
O      6.960001    22.360001    15.890001
O      7.360001    24.400002    14.500000
O      8.810000    24.020002    16.540001
H      6.070001    25.350000    16.350000
O    -14.780001    52.230000   -14.560001
S    -16.010000    51.530003   -13.640001
O    -15.940001    52.210003   -12.310000
O    -17.250000    51.870003   -14.380001
O    -15.630001    50.090004   -13.550000
H    -14.260001    52.889999   -14.010000
O     16.010000    24.230001    13.040000
S     17.520000    23.940001    13.740001
O     18.140001    25.270002    13.460001
O     17.330000    23.860001    15.220001
O    -17.380001    22.889999    13.040000
H     16.090000    23.880001    12.110001
O    -15.130001    21.130001    14.160000
S    -13.450001    20.950001    14.010000
O    -13.230000    21.820002    12.820001
O    -12.920000    21.410000    15.320001
O    -13.420000    19.490002    13.710001
H    -15.240001    21.850002    14.840001
O    -15.390000    22.190001    11.330000
H    -15.380001    21.270000    11.010000
H    -14.450001    22.310001    11.530000
H    -15.950001    22.160000    12.120000
