342
NATURAL 3H_R_C1_k1 t=3460.0 HSO=7 HHS=38 H3O=2
N     17.620001    20.960003    26.100002
C     18.770000    21.680002    25.540001
C     19.560001    22.640001    26.440001
C     19.780001    20.830002    24.810001
O     20.840000    20.280001    25.480001
N     19.710001    20.770000    23.430002
C     18.670002    21.030003    22.450001
C     19.060001    22.240002    21.610001
C     18.340000    19.810001    21.620003
O     19.430000    19.340002    20.940001
O     17.180000    19.100000    21.800001
H     17.110001    21.610001    26.680002
H     16.980001    20.620001    25.400002
H     18.410000    22.400000    24.799999
H     20.559999    20.450001    22.990000
H     17.690001    21.240002    22.889999
H     16.770000    19.230001    22.640001
H     20.370003    23.130001    25.900002
H     20.090000    22.010002    27.160000
H     19.000000    23.460003    26.870001
H     18.930000    23.210001    22.090000
H     18.350000    22.440002    20.800001
H     20.040001    22.240002    21.130001
H     17.930000    20.170002    26.639999
H     20.590000    19.780001    26.250002
H     19.240002    18.530001    20.480001
O     16.370001    17.230000    28.740002
S     15.170001    17.670000    29.780003
O     13.980001    17.170002    29.100000
O     15.640001    17.460001    31.160002
O     15.000001    19.290001    29.550001
H     17.140001    16.760002    29.120003
H     14.910001    19.710001    30.420000
O     18.680000    18.720001    15.640001
S     19.010002    17.600000    14.480000
O     20.240002    18.050001    13.820001
O     19.020000    16.370001    15.290001
O     17.640001    17.760002    13.580000
H     18.930000    18.300001    16.480001
H     17.889999    18.270000    12.790001
O     19.820002    12.670001    18.720001
S     19.320000    12.190001    20.220001
O     19.630001    10.770000    20.370003
O     19.550001    13.230000    21.230001
O     17.700001    11.980000    20.030001
H     20.310001    13.480000    18.950001
H     17.280001    12.460001    20.760002
O     14.250001    23.190001    20.230000
S     14.250001    21.790001    21.110001
O     15.530001    21.680002    21.820002
O     12.950001    21.650002    21.760002
O     14.420000    20.510002    20.090000
H     13.340001    23.510000    20.350000
H     13.730000    19.830000    20.040001
O     17.790001    24.120003    29.230001
S     16.630001    23.040001    29.700001
O     15.680000    23.840000    30.480001
O     16.510000    22.390001    28.390003
O     17.240002    21.830002    30.640001
H     17.500002    25.040001    29.290001
H     16.930000    21.720001    31.550003
O     24.320002    18.360001    22.630001
S     22.870003    18.430000    23.410000
O     23.180000    18.760000    24.799999
O     21.950001    19.280001    22.650002
O     22.460001    16.840002    23.260002
H     25.040001    18.740002    23.150002
H     22.200001    16.450001    24.110001
O     15.020000    25.070002    24.360001
S     14.480000    23.600002    24.880001
O     13.150001    23.480000    24.280003
O     15.550001    22.610001    24.760000
O     14.520000    23.860001    26.510000
H     14.400001    25.389999    23.680000
H     13.600000    23.700001    26.770000
O     20.230000    21.119999    14.490002
S     21.420002    21.170002    15.630001
O     22.730000    21.420002    15.020000
O     20.660000    21.960001    16.610001
O     21.530001    19.610001    16.140001
H     20.610001    21.320002    13.620001
H     21.360001    19.390001    17.070002
O     23.000002    17.560001    31.870001
S     23.050001    16.870001    30.370003
O     24.370001    16.280001    30.140001
O     21.760002    16.180000    30.400002
O     23.160002    18.060001    29.240000
H     22.120001    17.430000    32.270004
H     22.369999    18.110001    28.670002
O     21.820002    25.090000    28.770000
S     21.870001    25.700001    27.250002
O     22.470001    27.040003    27.360001
O     22.360001    24.670000    26.340000
O     20.350000    25.900002    26.630001
H     22.360001    24.280003    28.820002
H     19.970001    26.790001    26.610001
O     22.660000    12.890000    26.560001
S     23.640001    14.200001    26.350002
O     22.860001    15.100001    25.500002
O     24.090002    14.510001    27.710001
O     24.900000    13.590001    25.459999
H     21.760002    13.140000    26.800001
H     25.150002    14.020000    24.630001
O     27.410002    24.630001    20.830002
S     26.620003    23.920002    19.580000
O     25.200003    24.260002    19.490002
O     27.590000    23.920002    18.480000
O     26.740000    22.380001    20.160000
H     26.960001    25.300003    21.380001
H     25.950001    21.809999    20.100000
O     26.170002    14.960001    18.460001
S     24.830000    15.690001    19.080002
O     24.610003    15.420000    20.500002
O     24.890001    17.080000    18.600002
O     23.590002    14.910001    18.330000
H     26.690002    15.740002    18.210001
H     23.010002    15.650001    18.100000
O     12.330000    16.380001    26.450003
S     11.390000    16.160000    25.110001
O     10.380001    15.290001    25.710001
O     11.290001    17.430000    24.380001
O     12.250000    15.210000    24.080002
H     12.490001    17.330000    26.580002
H     11.630001    14.540001    23.750000
O     29.600000    20.889999    29.230001
S     28.630001    21.709999    28.180000
O     27.470001    22.100000    28.980003
O     29.490002    22.500000    27.299999
O     27.570002    20.870001    27.250002
H     30.370003    21.470001    29.080002
H     27.700003    20.820000    26.290001
O     23.170002    22.040001    18.540001
S     23.270000    20.780001    19.600000
O     24.590000    20.780001    20.230000
O     21.960001    20.660000    20.250000
O     23.480000    19.560001    18.520000
H     23.500002    22.910002    18.840000
H     23.140001    18.690001    18.810001
O     10.270000    19.980001    26.690002
S     11.690001    20.020000    27.520000
O     11.260000    20.710001    28.740002
O     12.250000    18.670002    27.390001
O     12.440001    21.140001    26.580002
H      9.530001    20.270002    27.250002
H     13.330001    20.770000    26.460001
O     20.200001    16.639999    25.200003
S     18.690001    16.370001    24.600000
O     17.820000    15.530001    25.430002
O     18.340000    17.720001    24.130001
O     18.800001    15.730000    23.090000
H     19.970001    16.280001    26.070002
H     18.370001    14.860001    23.059999
O     17.520000    16.600000    20.110001
S     16.340000    16.820000    18.990000
O     15.280001    15.840001    19.250000
O     16.200001    18.280001    19.040001
O     17.100000    16.530001    17.560001
H     18.380001    16.220001    19.870001
H     16.520000    15.960001    17.020000
O     15.100001    18.190001    15.420000
S     13.510000    18.420002    15.780001
O     13.570002    19.620001    16.630001
O     12.900001    18.420002    14.450001
O     12.830001    17.180000    16.620001
H     15.270000    18.320002    14.470000
H     12.660000    17.500002    17.520000
O     19.490002    25.680000    32.740002
S     18.520000    26.730001    31.930000
O     18.360001    28.000002    32.640003
O     19.040001    26.700001    30.560001
O     17.220001    25.740002    31.720001
H     19.610001    26.060001    33.630001
H     16.400002    26.250002    31.830002
O     20.450001    23.180000    31.080000
S     21.809999    22.280003    31.270000
O     22.150002    22.080002    32.680000
O     21.410000    21.090002    30.510002
O     23.010002    22.930002    30.350000
H     20.090000    23.400002    31.960001
H     23.860001    22.630001    30.710001
O     18.050001    25.230000    14.330001
S     16.470001    25.480001    14.690001
O     16.620001    26.940002    14.720001
O     15.760001    24.790001    13.610001
O     16.310001    24.820002    16.190001
H     18.070000    24.590000    13.590001
H     15.730000    25.380001    16.740000
O     24.880001    21.090002    28.920002
S     24.290001    21.470001    27.430000
O     22.840002    21.610001    27.540001
O     24.980001    22.630001    26.860001
O     24.540003    19.970001    26.790001
H     25.720001    21.550003    29.070000
H     23.760002    19.600000    26.320002
O     15.100001    26.480003    21.410000
S     16.550001    25.860003    20.910000
O     17.550001    26.880001    20.590000
O     16.850000    24.640003    21.670000
O     16.270000    25.150002    19.450001
H     15.200001    27.360001    21.800001
H     15.920001    24.240000    19.500000
O     27.700003    17.889999    26.240002
S     26.420002    17.150000    26.960001
O     25.320000    16.950001    26.000002
O     26.960001    15.870001    27.400002
O     25.960003    17.910002    28.350000
H     27.360001    18.190001    25.380001
H     25.030001    18.180000    28.390003
O     24.380001    12.340001    22.080002
S     22.780001    12.510000    21.730001
O     22.710001    12.710000    20.280001
O     21.980001    11.600000    22.550001
O     22.720001    13.960000    22.490002
H     24.890001    11.870001    21.400002
H     21.780003    14.110001    22.690001
O     16.130001    20.580002    17.670000
S     17.530001    21.440001    17.740000
O     17.170002    22.680000    18.430000
O     18.570002    20.650002    18.400000
O     17.990002    21.900002    16.220001
H     16.230000    19.670002    18.000000
H     18.820002    21.480000    15.940001
O     14.170000    26.510000    27.430000
S     15.090000    27.850000    27.710001
O     14.140000    28.960001    27.590000
O     15.920001    27.700003    28.920002
O     16.120001    27.900002    26.430000
H     14.010000    25.870001    28.140001
H     16.950001    28.400002    26.480003
O     22.230000    22.970001    24.190002
S     23.690002    22.990000    23.440001
O     23.300001    23.260002    22.050001
O     24.630001    23.780001    24.250002
O     24.050003    21.400002    23.640001
H     22.220001    23.730001    24.799999
H     24.850002    21.260002    24.180002
O     18.270000    19.250000    31.500000
S     19.280001    19.370001    32.790001
O     18.400000    19.130001    33.940002
O     20.580002    18.700001    32.740002
O     19.470001    20.980000    33.110001
H     18.730001    18.740002    30.810001
H     19.150002    21.150000    34.010002
O      9.440001    24.270000    27.390001
S     10.600000    24.240000    26.210001
O     10.559999    25.250000    25.150002
O     11.830001    24.070000    27.000000
O     10.170001    22.750000    25.640001
H      9.070001    25.150002    27.550001
H     10.320001    22.770002    24.680002
O     15.110001    15.980000    22.570002
S     15.190001    14.340000    22.400000
O     13.910000    13.900002    21.830002
O     16.520000    14.080001    21.840000
O     15.120001    13.680000    23.900002
H     14.280001    16.170002    22.110003
H     14.910001    12.730000    23.880001
O     19.770000    31.040001    28.090000
S     18.780001    29.720001    28.230001
O     18.230001    29.530001    29.570004
O     18.030001    29.580002    26.980001
O     19.650002    28.320000    28.280001
H     19.490002    31.650002    27.390001
H     19.920002    28.030003    29.160002
O     23.880001    28.160002    21.809999
S     24.630001    27.040003    20.870001
O     25.420000    27.550001    19.750002
O     25.050001    26.150000    21.960001
O     23.240002    26.540001    20.160000
H     24.420002    28.940001    22.030001
H     23.350000    25.570002    20.180000
O     19.870001    27.410002    24.000000
S     20.350000    26.230001    22.959999
O     19.900002    24.940002    23.490002
O     20.130001    26.670000    21.580000
O     21.960001    26.070002    23.270000
H     19.500000    28.250000    23.660002
H     22.520000    26.240002    22.490002
O     27.580002    25.730001    28.010002
S     25.970001    25.590000    28.290003
O     25.330002    25.650002    26.970001
O     25.830002    24.730000    29.470001
O     25.680000    27.050001    29.000000
H     28.220001    25.030001    28.260002
H     25.060001    27.520000    28.420002
O     19.490002    24.580002    17.190001
S     20.610001    25.040001    18.300001
O     20.500002    24.090002    19.410002
O     21.870001    25.420000    17.650002
O     19.960001    26.470001    18.800001
H     18.930000    23.820002    17.440001
H     19.780001    26.390001    19.750002
O     15.040001    19.870001    26.340000
S     14.960001    18.900002    24.950001
O     13.640001    19.350000    24.430000
O     16.100002    19.510000    24.209999
O     15.080000    17.490002    25.400002
H     15.250001    19.270000    27.110003
O     19.220001    20.210001    28.520002
S     19.470001    18.550001    28.310001
O     20.790001    18.430000    27.620001
O     19.020000    17.660000    29.420002
O     18.390001    18.480000    27.290001
H     19.150002    20.290001    29.510002
O     26.750002    21.690002    23.250000
S     27.510002    20.300003    23.840000
O     28.020000    19.850002    22.520000
O     28.580000    20.680000    24.810001
O     26.390001    19.510000    24.410002
H     26.990002    21.630001    22.280003
O     20.710001    16.630001    20.180000
S     20.670002    16.820000    18.500002
O     19.630001    17.840000    18.220001
O     22.060001    17.240002    18.150002
O     20.230000    15.490000    18.000000
H     21.639999    16.770000    20.530003
O     12.810000    21.800001    32.980000
S     13.740001    20.400002    32.780003
O     14.190001    20.130001    34.170002
O     12.720001    19.410002    32.340004
O     14.750000    20.910000    31.810001
H     12.890000    21.960001    33.970001
O     10.860001    18.340000    20.860003
S     12.410001    17.710001    20.610001
O     13.170000    18.430000    21.670000
O     12.500000    16.230000    20.720001
O     12.760000    18.160002    19.230001
H     10.320001    17.580002    21.210001
O     19.590000    14.310001    29.950001
S     19.160002    14.060000    28.330002
O     19.190002    12.580000    28.250000
O     17.750000    14.560001    28.290003
O     20.060001    14.880000    27.470001
H     20.140001    15.140000    30.070002
O     15.480001    14.940001    26.850002
H     16.350000    14.850000    27.270002
H     14.730000    14.750000    27.440002
H     15.350000    15.840001    26.500000
O     11.250000    19.880001    23.270000
H     11.840000    19.630001    22.550001
H     11.780001    19.620001    24.040001
H     10.430001    19.360001    23.340000
