338
NATURAL 3H_R_T1_k0 t=4900.0 HSO=8 HHS=36 H3O=3
N     15.500001    23.480000    20.640001
C     15.690001    23.270000    19.200001
C     16.770000    22.260000    18.840000
C     14.440001    22.950001    18.420002
O     14.570000    22.959999    17.050001
N     13.220000    22.630001    18.980001
C     12.160001    21.950001    18.270000
C     12.610001    20.540001    17.889999
C     10.830001    22.000000    18.990000
O      9.980000    23.020000    18.640001
O     10.400001    21.190002    20.000000
H     14.830000    24.209999    20.820000
H     15.250001    22.630001    21.110001
H     15.960001    24.250002    18.780001
H     13.090000    22.850000    19.960001
H     12.080001    22.550001    17.370001
H      9.460000    21.290001    20.070002
H     16.860001    22.030001    17.780001
H     16.520000    21.290001    19.270000
H     17.750000    22.520000    19.250000
H     13.570002    20.470001    17.380001
H     11.810001    20.080002    17.310001
H     12.640000    19.910000    18.780001
H     16.300001    23.860001    21.130001
H     15.370001    23.250000    16.639999
H     10.480001    23.740002    18.290001
O      7.910000    17.360001    23.600002
S      6.700000    17.520000    24.700001
O      6.170001    18.870001    24.890001
O      5.800000    16.530001    24.100000
O      7.470000    16.900002    26.010000
H      8.040000    18.120001    23.000002
H      7.290000    17.530001    26.730001
O     13.170000    29.260002    11.810001
S     13.980001    29.240000    13.240002
O     13.760000    28.020000    14.030001
O     15.250001    29.890001    12.910000
O     13.090000    30.160000    14.270000
H     13.240002    28.380001    11.390000
H     13.460001    31.010000    14.580001
O      8.350000    29.440002    22.030001
S      9.820001    28.790001    21.680002
O     10.930000    29.300001    22.490002
O      9.450001    27.380001    21.520002
O     10.260000    29.050003    20.110001
H      8.470000    29.940002    22.860001
H     11.150000    29.420002    19.970001
O     12.300000    16.800001    13.260001
S     12.370001    17.960001    14.430000
O     12.860001    17.330000    15.660001
O     13.200001    18.930000    13.710001
O     10.950001    18.780001    14.580001
H     13.050001    16.280001    13.600000
H     10.230000    18.150002    14.440001
O     18.120001    26.480003    24.220001
S     18.900002    25.730001    22.990000
O     17.960001    24.880001    22.250002
O     19.630001    26.870001    22.420002
O     20.130001    24.790001    23.549999
H     17.180000    26.240002    24.170000
H     20.940001    24.840002    23.010002
O     11.410000    27.130001    16.480001
S     11.820001    25.550001    16.270000
O     13.240002    25.410002    15.920001
O     11.220001    24.970001    17.470001
O     10.770000    25.040001    15.100001
H     12.180000    27.710001    16.410000
H     11.440001    24.690001    14.480000
O     11.020000    17.330000    24.130001
S     12.180000    16.230000    24.510002
O     13.250000    16.390001    23.530003
O     12.440001    16.440001    25.940001
O     11.490001    14.740001    24.390001
H     11.050000    17.910002    23.350000
H     12.000000    14.110001    23.860001
O      9.110001    23.010002    12.650002
S      7.790000    22.700003    13.570002
O      8.070001    23.380001    14.840001
O      6.590000    22.880001    12.760000
O      7.880001    21.060001    13.740001
H      8.780001    23.250000    11.760000
H      7.200000    20.480001    13.360001
O     12.260000    24.020002    13.140000
S     12.880001    22.500000    13.300000
O     13.450001    22.000000    12.050000
O     13.890000    22.730000    14.340000
O     11.750001    21.590002    14.090000
H     12.330000    24.160002    12.180000
H     11.430000    20.730001    13.770000
O     19.370001    21.720001    23.840000
S     17.870001    21.140001    23.470001
O     17.380001    21.770000    22.250002
O     17.810001    19.680000    23.590002
O     17.150000    21.760002    24.820002
H     19.820002    22.000000    23.020000
H     16.270000    22.110003    24.590000
O      2.160000    26.720001    15.890001
S      3.020000    26.280001    17.230000
O      1.910000    26.160002    18.180000
O      3.740000    25.100002    16.760002
O      4.040000    27.530001    17.560001
H      2.690000    27.380001    15.400001
H      4.060000    27.610001    18.530001
O      9.260000    28.600002    12.380000
S      9.640000    27.000000    12.420001
O     11.070000    26.870001    12.730000
O      8.530001    26.340000    13.120001
O      9.660000    26.430000    10.880001
H      8.580000    28.820002    13.030001
H     10.200001    25.620001    10.810001
O      4.040000    22.860001    15.200001
S      2.940000    21.740000    15.690001
O      3.850000    20.670002    16.120001
O      1.840000    22.220001    16.530001
O      2.170000    21.230001    14.330001
H      3.960000    23.670002    15.740002
H      2.750000    20.660000    13.800001
O     16.790001    15.060000    15.920001
S     15.420000    14.520000    15.170001
O     15.060000    15.720000    14.410001
O     15.290001    13.110001    14.800000
O     14.430000    14.950001    16.410000
H     17.470001    14.370001    16.049999
H     13.850001    14.170000    16.470001
O     16.650002    16.980001    23.980000
S     17.680000    15.930000    23.240002
O     18.990000    16.530001    22.950001
O     17.430000    14.640001    23.890001
O     16.900002    15.960001    21.790001
H     17.100000    17.840000    24.060001
H     16.700001    15.010000    21.720001
O     20.530003    15.830001    16.990002
S     21.550003    17.010000    16.440001
O     21.680002    16.700001    15.010000
O     21.170002    18.380001    16.800001
O     22.950001    16.660002    17.220001
H     20.360001    15.430001    16.120001
H     23.150002    17.390001    17.830002
O      8.800000    18.790001    17.200001
S      7.950000    20.200001    17.310001
O      6.680000    20.300003    16.590000
O      7.920001    20.559999    18.730001
O      8.910000    21.370001    16.670000
H      8.280001    18.050001    16.840002
H      8.400001    22.070000    16.220001
O     12.480000    27.470001    19.090000
S     14.040001    27.530001    18.550001
O     14.620000    28.640001    19.310001
O     14.460001    26.130001    18.580000
O     14.100000    28.170002    17.030001
H     12.300000    26.530001    19.260002
H     14.600000    27.570002    16.460001
O     18.090002    29.470001    21.690002
S     16.920000    29.910002    22.770002
O     15.830001    28.930000    22.670002
O     17.390001    30.360003    24.080002
O     16.170002    31.140001    21.970001
H     18.990000    29.280003    21.990002
H     15.970001    31.950001    22.460001
O     19.560001    27.650002    19.210001
S     18.790001    26.310001    18.620001
O     19.410002    25.090000    19.150002
O     17.340000    26.470001    18.560001
O     19.730000    26.160002    17.270000
H     19.000000    28.440001    19.280001
H     19.090000    25.740002    16.670000
O     17.370001    26.049999    11.790000
S     17.470001    27.690001    11.590000
O     17.870001    28.290003    12.870001
O     18.180000    27.660000    10.310000
O     16.070002    28.170002    10.880001
H     17.260000    25.810001    12.720001
H     15.710001    28.930000    11.380000
O      1.220000    21.650002    19.320000
S      2.550000    22.210003    20.110001
O      1.920000    23.530003    20.280001
O      2.800000    21.320002    21.240002
O      3.710000    22.490002    18.980001
H      0.880000    20.820000    19.710001
H      4.540000    22.860001    19.340002
O      5.590000    25.860003    19.800001
S      6.650000    24.600000    19.770000
O      6.770000    24.570000    18.310001
O      7.880001    24.850002    20.510002
O      6.100000    23.110001    20.210001
H      6.140000    26.650002    19.950001
H      6.610000    22.600000    20.870001
O     20.210001    17.790001    20.240002
S     20.100000    19.420002    20.459999
O     18.780001    19.620001    19.860001
O     20.320000    19.470001    21.910002
O     21.240002    20.050001    19.460001
H     20.440002    17.320002    21.060001
H     21.700001    20.750000    19.940001
O     17.630001    18.180000    17.830002
S     16.060001    17.750000    18.090002
O     16.070002    16.350000    18.550001
O     15.290001    18.900002    18.560001
O     15.580001    17.900002    16.520000
H     18.000000    18.540001    18.650002
H     15.140000    17.080000    16.230000
O      6.420000    17.060001    18.630001
S      5.820000    17.370001    20.130001
O      5.220000    16.170002    20.710001
O      6.870000    18.150002    20.790001
O      4.530000    18.380001    19.930002
H      6.300001    16.130001    18.390001
H      4.270000    18.380001    20.870001
O     18.270000    20.510002    15.000001
S     16.720001    20.580002    14.480000
O     16.380001    19.310001    13.820001
O     15.980000    21.230001    15.570001
O     16.700001    21.950001    13.560000
H     18.540001    19.570002    14.960001
H     15.980000    22.540001    13.860001
O      8.630000    12.300000    22.250002
S      8.650001    13.900002    22.650002
O      9.810000    14.610001    22.090000
O      7.290000    14.400001    22.450001
O      8.900001    13.940001    24.270000
H      7.900000    12.140001    21.630001
H      9.500000    14.610001    24.620001
O     10.080000    20.500002    24.870003
S     10.820000    21.940001    25.160000
O     12.150001    21.780003    24.560001
O     10.010000    23.080002    24.730000
O     10.890001    22.010002    26.810001
H      9.420000    20.760002    24.209999
H     11.770000    22.090000    27.210003
O     10.940001    15.180001    19.570002
S     11.520000    16.690001    19.230001
O     10.740000    17.770000    19.830000
O     12.970000    16.510000    19.390001
O     11.180000    16.710001    17.620001
H     10.520000    15.220001    20.450001
H     11.980000    16.890001    17.100000
O      8.310000    20.010002    11.170001
S      9.880000    19.610001    10.830001
O     10.230000    19.580000     9.400001
O     10.770000    20.380001    11.690001
O     10.050000    18.070000    11.380000
H      7.730000    20.459999    10.530001
H     10.250001    17.430000    10.670000
O      5.780000    30.660002    20.570002
S      6.560000    29.690001    19.500000
O      7.820001    30.250000    19.020000
O      6.500000    28.300001    19.980001
O      5.340000    29.930000    18.420002
H      6.410000    31.210001    21.070002
H      5.720000    29.690001    17.550001
O     19.390001    23.500002    26.010000
S     20.310001    22.660000    27.090000
O     20.960003    23.740002    27.830002
O     19.280001    21.800001    27.680000
O     21.420002    21.700001    26.330002
H     19.710001    23.360003    25.100002
H     22.270000    21.940001    26.740000
O     14.360001    20.340002    23.490002
S     13.750001    19.620001    22.139999
O     12.360001    19.180000    22.230000
O     14.200001    20.690001    21.240002
O     14.930000    18.480000    21.960001
H     13.550000    20.680000    23.910000
H     14.560001    17.600000    22.150002
O     19.620001    22.920000    15.350000
S     20.370003    22.380001    16.710001
O     21.200001    23.450001    17.270000
O     19.600000    21.530001    17.620001
O     21.450003    21.310001    16.100002
H     18.670002    22.720001    15.210000
H     21.480000    20.420000    16.500000
O      8.660001    27.310001    17.570002
S      7.920001    27.680000    16.140001
O      6.850000    28.570002    16.610001
O      8.910000    28.190002    15.190001
O      7.240000    26.280001    15.630001
H      9.500000    27.770002    17.730001
H      7.470000    26.070002    14.710001
O      7.220001    24.330002    24.940002
S      5.750000    24.799999    24.260002
O      4.800000    25.000000    25.380001
O      6.190000    26.030003    23.530003
O      5.270000    23.700001    23.380001
H      7.410001    23.370001    24.740002
O     22.540001    21.900002    22.299999
S     21.720001    22.910002    21.230001
O     21.970001    24.310001    21.650002
O     22.400000    22.480001    19.980001
O     20.270002    22.640001    21.480000
H     23.300001    21.520002    21.770000
O     14.270000    25.240002     9.180000
S     13.240002    25.770000    10.400001
O     14.100000    25.610001    11.610001
O     12.920000    27.190001    10.070001
O     12.070000    24.840002    10.480001
H     14.640001    25.960003     8.580000
O      6.330000    20.550001    21.960001
S      7.740001    21.100002    22.710001
O      8.630000    19.910000    22.750000
O      8.340000    22.170000    21.870001
O      7.400000    21.590002    24.080002
H      6.460000    19.640001    21.570000
O     13.490001    25.080002    25.300003
S     15.040001    24.690001    24.750002
O     15.540000    25.760002    23.840000
O     15.850000    24.540003    25.980000
O     14.830000    23.470001    23.920002
H     12.960000    24.360001    24.850002
O      9.590000    16.040001    14.860001
S      7.920001    16.190001    14.710001
O      7.280001    15.900001    16.020000
O      7.880001    17.650002    14.410001
O      7.650001    15.270000    13.570002
H      9.860001    15.960001    15.820000
O     15.870001    24.760000    13.950001
S     16.820000    25.420000    15.180001
O     16.840002    24.380001    16.240002
O     18.220001    25.610001    14.690001
O     16.070002    26.639999    15.590000
H     15.200001    25.450001    13.660001
O     12.610001    23.440001    21.750002
S     12.380000    25.090000    21.500000
O     11.630001    24.990002    20.210001
O     11.550001    25.620001    22.620001
O     13.760000    25.640001    21.400002
H     12.430000    23.250000    22.720001
O      9.080001    25.130001    23.100002
H      8.520000    25.890003    22.880001
H     10.030001    25.320000    23.050001
H      8.880001    24.820002    24.000000
O     22.490002    25.070002    18.980001
H     22.160000    25.140001    19.890001
H     21.809999    24.850002    18.310001
H     23.100002    24.310001    18.970001
O     13.530001    27.910002    23.580000
H     14.040001    28.150002    24.370001
H     14.100000    27.310001    23.059999
H     13.350000    28.770000    23.160002
