342
NATURAL 3H_R_C2_k1 t=1940.0 HSO=7 HHS=38 H3O=2
N     16.230000    17.850000    14.780001
C     15.100001    18.730001    14.440001
C     14.600000    18.240002    13.070001
C     14.070001    18.680000    15.540000
O     14.060000    17.510000    16.260000
N     13.240002    19.690001    15.980000
C     13.030001    21.090002    15.670000
C     14.090000    22.050001    16.210001
C     12.690001    21.380001    14.230001
O     13.660001    21.850002    13.390001
O     11.400002    21.230001    13.780001
H     15.860001    16.940001    14.990001
H     16.920000    17.750000    14.040001
H     15.520000    19.730000    14.520000
H     12.520000    19.350000    16.610001
H     12.130001    21.410000    16.200001
H     10.820000    20.740002    14.330001
H     14.400001    17.180000    12.980001
H     15.170001    18.610001    12.220000
H     13.610001    18.690001    12.940001
H     14.300001    21.760002    17.240002
H     13.840000    23.100002    16.100002
H     15.080000    21.890001    15.780001
H     16.720001    18.250000    15.570001
H     13.250000    17.520000    16.740000
H     13.280001    22.150002    12.580000
O     19.040001    19.920002     8.910000
S     18.070000    19.470001     7.660000
O     17.150000    18.530001     8.310000
O     17.720001    20.580002     6.770000
O     19.170000    18.430000     7.000000
H     19.180000    20.880001     8.920000
H     19.080002    18.450001     6.030001
O     13.780001    24.960001    20.300003
S     12.550001    23.920002    20.620001
O     12.550001    23.330002    21.960001
O     11.550001    24.760000    19.960001
O     12.740001    22.770002    19.460001
H     14.170000    25.300003    21.130001
H     12.700001    21.890001    19.880001
O     17.000000     9.620001    11.510000
S     16.840002    10.760001    12.680000
O     17.850000    10.540000    13.730000
O     16.610001    11.970000    11.890000
O     15.410002    10.310000    13.350000
H     16.690001    10.080000    10.710001
H     15.470000    10.280000    14.320001
O      9.260000    17.480000    11.140001
S     10.180000    16.260000    10.510000
O     10.340000    15.230001    11.530000
O      9.770000    16.140001     9.110001
O     11.640000    17.020000    10.520000
H      9.850000    18.180000    11.460000
H     12.180000    16.940001     9.720000
O     18.980001    15.460001    19.390001
S     18.340000    15.770000    20.880001
O     16.970001    15.350000    20.580002
O     19.130001    15.030001    21.870001
O     18.330000    17.390001    21.190002
H     19.500000    14.640001    19.350000
H     18.460001    17.880001    20.360001
O      9.790000    28.400002    14.600000
S      9.300001    28.300001    13.030001
O      8.010000    28.940001    12.770000
O     10.480001    28.840000    12.340001
O      9.320001    26.770000    12.410001
H      9.100000    28.900002    15.070001
H      8.420001    26.590002    12.070000
O      7.180000    26.110001    14.870001
S      6.320000    25.080002    13.920001
O      7.220001    23.990002    13.530001
O      4.980000    24.640003    14.330001
O      6.260000    26.190002    12.710000
H      6.990001    25.970001    15.820000
H      5.400000    26.630001    12.640000
O     12.780001    28.130001    14.190001
S     13.860001    27.520000    15.270000
O     15.060000    28.360003    15.300001
O     13.110001    27.230000    16.500000
O     14.190001    25.990002    14.740001
H     13.080001    28.920002    13.700001
H     15.070001    25.640001    14.970001
O     17.450001    14.640001    16.710001
S     16.110001    14.070001    15.960001
O     15.620001    15.290001    15.310000
O     16.310001    12.800001    15.250001
O     15.370001    13.630000    17.360001
H     18.280001    14.180001    16.510000
H     14.810000    12.870001    17.110001
O     17.860001    11.980000     8.750001
S     16.230000    12.040001     8.520000
O     16.040001    12.060001     7.070000
O     15.960001    10.840001     9.330000
O     15.560001    13.370000     9.210001
H     18.220001    12.050000     7.850000
H     15.090000    13.870001     8.520000
O     13.840000    25.050001    23.980000
S     15.040001    23.930000    24.139999
O     15.980000    24.700001    24.970001
O     14.360001    22.770002    24.720001
O     15.610001    23.490002    22.660000
H     12.970000    24.730000    24.270000
H     16.530001    23.810001    22.650002
O      3.320000    24.090002    11.370001
S      4.340000    23.210001    10.420000
O      3.570000    22.510002     9.390000
O      5.290000    24.250002    10.020000
O      4.900000    22.240002    11.620001
H      2.380000    24.209999    11.150000
H      5.420001    21.580000    11.120001
O     17.480000    21.160002    22.139999
S     18.170000    20.540001    23.500002
O     19.570002    20.100000    23.400002
O     17.580002    21.410000    24.520000
O     17.560001    19.040001    23.780001
H     18.170000    21.390001    21.490002
H     18.180000    18.300001    23.840000
O     22.900002    20.950001    16.730001
S     23.059999    19.460001    17.420002
O     21.860001    18.960001    18.090002
O     23.960001    18.560001    16.690001
O     24.000000    19.920002    18.690001
H     21.960001    20.910000    16.480001
H     23.570002    19.530001    19.470001
O     12.930001    13.030001    21.720001
S     14.530001    13.100000    22.120001
O     14.920001    14.300001    22.870003
O     14.860001    11.850000    22.790001
O     15.110001    13.150001    20.580002
H     12.390001    13.690001    22.180002
H     15.610001    13.970001    20.400002
O      8.060000    22.190001    11.250000
S      8.540000    20.670002    10.810001
O      8.770000    20.760002     9.360001
O      9.580001    20.050001    11.630001
O      7.090001    19.970001    11.170001
H      8.820001    22.680000    11.610001
H      6.850000    19.270000    10.550001
O     13.870001    15.620001    19.720001
S     12.480000    16.200001    19.050001
O     11.340000    15.860001    19.910000
O     12.730000    17.510000    18.430000
O     12.430000    15.290001    17.680000
H     14.470000    16.380001    19.720001
H     11.580001    14.810000    17.730001
O     14.950001    24.690001    12.080001
S     15.980000    25.820000    11.470001
O     16.800001    24.870003    10.710001
O     14.990001    26.820002    11.060000
O     16.860001    26.170002    12.820001
H     14.050001    25.040001    12.090001
H     17.320002    27.020000    12.740001
O     19.790001    12.950001    11.410000
S     19.900002    13.590001    12.920000
O     21.030003    14.530001    12.990000
O     18.550001    13.860001    13.410001
O     20.620001    12.370001    13.760000
H     18.950001    13.260001    11.020000
H     20.300003    12.400000    14.680000
O     10.490000    25.560001    15.130001
S     10.000000    24.310001    16.070002
O      8.790001    24.680002    16.810001
O      9.950001    23.020000    15.360001
O     11.400002    24.310001    16.930000
H      9.910001    26.340000    15.120001
H     11.260000    24.240000    17.889999
O     21.400002    17.360001    14.600000
S     20.030001    18.150002    15.060000
O     20.380001    19.490002    15.540000
O     18.890001    17.980001    14.150001
O     19.580000    17.120001    16.270000
H     21.310001    17.380001    13.630000
H     19.540001    17.570002    17.130001
O     20.280001    23.950003    13.220000
S     20.650002    24.130001    14.810000
O     21.660002    23.180000    15.290001
O     20.990002    25.540001    15.020000
O     19.390001    23.420000    15.600000
H     20.490000    24.770002    12.740001
H     18.930000    24.130001    16.100002
O     10.930000    17.390001     6.210001
S     10.600000    18.830002     6.930000
O      9.180000    18.930000     6.560000
O     11.170001    18.910000     8.280001
O     11.350001    20.150002     6.280000
H     11.510000    16.790001     6.720000
H     10.660001    20.830002     6.320000
O     11.770000    27.700003    19.139999
S     12.850000    28.820002    19.690001
O     13.380001    28.250000    20.940001
O     13.790001    29.030001    18.590000
O     12.270001    30.330002    20.000000
H     12.100000    27.410002    18.270000
H     12.990000    30.960003    19.840000
O      7.830000    16.780001    17.800001
S      7.600000    15.310000    17.070002
O      7.160000    15.550001    15.690001
O      8.750001    14.510001    17.490002
O      6.320000    14.620000    17.850000
H      7.740001    17.630001    17.330000
H      5.660000    14.330001    17.200001
O     11.560000    12.710000    12.980001
S     12.360001    13.840000    13.880000
O     13.050001    13.060001    14.910001
O     12.990000    14.890001    13.070001
O     11.090001    14.470000    14.730000
H     11.710000    12.840000    12.030001
H     10.960001    15.430001    14.770001
O      9.790000    21.530001    17.720001
S     10.140000    20.330000    18.800001
O      8.910000    19.560001    18.990000
O     11.340000    19.780001    18.160002
O     10.730000    20.880001    20.240002
H      8.890000    21.560001    17.360001
H     10.090000    20.610001    20.930002
O     15.960001    14.580001    12.070000
S     16.930000    15.590000    11.210001
O     17.270000    16.590000    12.220000
O     17.930000    14.840001    10.440001
O     15.910001    16.410000    10.200001
H     16.410000    13.720001    12.020000
H     16.140001    16.280001     9.270000
O     17.560001    19.620001    12.030001
S     18.150002    21.100002    12.480000
O     19.610001    21.000002    12.370001
O     17.360001    22.220001    11.950001
O     17.860001    21.270000    14.090000
H     18.310001    19.139999    11.650001
H     18.670002    21.709999    14.410001
O     13.320000    21.380001     8.790001
S     14.610001    20.600002     9.460000
O     15.710001    21.310001     8.810000
O     14.450001    20.490000    10.910001
O     14.420000    19.010002     9.060000
H     12.550001    21.770000     9.230000
H     15.270000    18.870001     8.600000
O     12.230000    10.880001    19.790001
S     12.140001    11.650001    18.340000
O     11.120001    12.710000    18.410000
O     13.470001    11.750001    17.740000
O     11.390000    10.340000    17.680000
H     12.060001    11.480000    20.530003
H     11.180000    10.530001    16.750000
O     14.840001    20.540001    22.440002
S     14.120001    19.380001    21.530001
O     13.780001    20.030001    20.260000
O     14.790001    18.080002    21.670000
O     12.640000    19.210001    22.230000
H     15.520000    21.080000    21.990002
H     12.600001    18.250000    22.360001
O     20.040001    23.460003    18.820002
S     20.480001    21.960001    19.330002
O     21.930000    21.730001    19.320000
O     19.750002    21.760002    20.590000
O     19.820002    21.140001    18.070000
H     20.830002    24.010000    18.670002
H     19.060001    20.550001    18.170000
O     15.690001    22.280003    19.570002
S     16.560001    23.490002    18.880001
O     17.050001    24.370001    19.950001
O     17.270000    22.620001    17.940001
O     15.380001    24.209999    17.980001
H     16.090000    21.440001    19.280001
H     15.750000    25.080002    17.770000
O     21.809999    17.180000    11.810001
S     20.960003    17.600000    10.460000
O     21.000002    16.400002     9.610001
O     19.710001    18.080002    11.030001
O     21.730001    18.930000     9.870001
H     22.350002    16.370001    11.720000
H     22.050001    18.810001     8.960000
O     18.290001    23.170002     9.070001
S     19.720001    23.960001     8.970000
O     20.030001    24.270000     7.570000
O     19.750002    24.700001    10.230000
O     20.450001    22.520000     9.310000
H     17.650002    23.770000     9.500000
H     21.190002    22.540001     9.940001
O     13.710001    23.160002     6.210001
S     15.020000    23.990002     6.750000
O     16.300001    23.290001     6.570000
O     14.740001    25.320000     6.200000
O     14.850000    24.300001     8.360001
H     13.880000    22.290001     5.800000
H     15.210000    23.580000     8.900001
O     10.950001    11.390000    10.250001
S     11.740000    12.130001     9.010000
O     12.920000    11.270000     8.930000
O     10.850000    12.350000     7.870001
O     12.020000    13.680000     9.520000
H     10.130000    10.910001    10.000000
H     12.660000    14.130001     8.940001
O     16.660002    26.960001    17.640001
S     17.600000    26.370001    16.360001
O     18.780001    25.860003    17.110001
O     16.780001    25.290001    15.760001
O     17.710001    27.520000    15.410002
H     16.420000    27.910002    17.490002
O     15.240001    15.930000     7.560000
S     13.710001    15.490000     7.020000
O     12.730000    16.140001     7.940001
O     13.530001    15.920001     5.600000
O     13.800001    14.010000     7.120000
H     15.720000    16.390001     6.810000
O      9.960001    19.480001    15.450001
S     10.460000    18.010002    14.780001
O      9.220000    17.230000    14.490002
O     11.160001    18.410000    13.530001
O     11.340000    17.290001    15.750000
H      9.050000    19.300001    15.820000
O     16.150002    17.600000    18.280001
S     17.210001    18.920000    18.260000
O     17.260000    19.420002    16.860001
O     16.910002    19.920002    19.320000
O     18.520000    18.280001    18.570002
H     16.630001    16.760002    18.530001
O     18.980001    11.510000    16.430000
S     20.220001    12.490001    17.030001
O     20.020000    13.720001    16.220001
O     20.140001    12.710000    18.510000
O     21.380001    11.720000    16.510000
H     18.280001    11.370001    17.130001
O      7.210000    20.030001    14.260001
S      6.480000    20.120001    15.790001
O      6.460000    18.660000    16.100002
O      7.450001    21.000002    16.500000
O      5.090000    20.600002    15.600000
H      7.940001    20.700001    14.120001
O     10.180000    23.770000    11.920000
S     11.590000    24.160002    11.070000
O     11.000000    24.520000     9.740001
O     12.180000    25.310001    11.800001
O     12.460001    22.950001    11.000000
H     10.320001    24.139999    12.830001
O     12.130001    27.210003     9.870001
H     12.330000    28.060001    10.300001
H     11.260000    27.390001     9.490001
H     12.190001    26.520002    10.559999
O      6.180000    17.290001    13.670001
H      5.450000    17.060001    14.270000
H      6.350000    18.250000    13.690001
H      7.040000    16.870001    13.840000
