360
NATURAL 3H_R_T2_k1 t=520.0 HSO=7 HHS=40 H3O=3
N     17.680000    20.389999    19.070000
C     17.800001    19.170000    18.250000
C     19.110001    18.440001    18.530001
C     16.590000    18.260000    18.310001
O     16.350000    17.370001    17.300001
N     15.830001    18.260000    19.450001
C     14.820002    17.250000    19.730000
C     14.780001    16.920000    21.220001
C     13.460001    17.650002    19.210001
O     12.730000    18.580000    19.910000
O     13.150001    17.280001    17.930000
H     16.990002    21.070002    18.780001
H     17.370001    20.170002    20.000000
H     17.760002    19.630001    17.260000
H     16.020000    18.880001    20.220001
H     15.160000    16.320002    19.260002
H     13.400001    16.420000    17.650002
H     19.050001    17.460001    18.050001
H     19.090000    18.350000    19.610001
H     20.030001    18.890001    18.150002
H     14.070001    16.130001    21.470001
H     14.720001    17.760002    21.910002
H     15.790001    16.610001    21.470001
H     18.550001    20.889999    19.210001
H     16.940001    17.570002    16.600000
H     11.870001    18.760000    19.550001
O      8.320000    16.320002    20.320000
S      8.720000    17.910002    20.380001
O     10.160000    18.150002    20.350000
O      7.770000    18.510000    19.440001
O      8.210000    18.330000    21.890001
H      8.910000    15.780001    19.760000
H      8.870000    18.810001    22.420002
O     24.090002    15.270000    11.460000
S     23.250000    16.600000    11.950001
O     21.990002    16.240002    11.290001
O     23.390003    16.930000    13.370000
O     23.720001    17.730001    10.850000
H     24.350002    14.750000    12.230000
H     24.220001    18.480000    11.230000
O     13.470001    23.200001    21.049999
S     14.280001    22.230000    22.110003
O     13.750001    22.290001    23.470001
O     14.730000    21.100002    21.280001
O     15.810001    22.800003    22.369999
H     12.660000    23.630001    21.360001
H     16.570000    22.510002    21.830002
O     25.160000    21.610001    20.190001
S     24.600000    20.470001    19.139999
O     23.350000    21.070002    18.680000
O     25.740002    20.090000    18.300001
O     24.010000    19.160002    19.960001
H     25.140001    22.530001    19.880001
H     24.510002    18.430000    19.560001
O     10.180000    20.220001    18.460001
S     10.250001    21.500000    19.490002
O     11.400002    21.240002    20.370003
O      9.930000    22.560001    18.530001
O      8.790001    21.410000    20.250000
H     10.230000    20.389999    17.500002
H      8.630000    22.120001    20.900002
O      8.980000    16.690001    15.900001
S     10.160000    15.890001    16.730001
O     11.120001    15.800000    15.630001
O     10.390000    16.390001    18.090002
O      9.350000    14.450001    16.790001
H      8.850000    17.540001    16.360001
H      9.840000    13.800001    16.250002
O     16.720001    14.120001    19.990002
S     18.280001    14.470000    20.389999
O     18.110001    15.660001    21.220001
O     18.830002    13.250000    21.000002
O     18.820002    15.020000    18.930000
H     16.320002    13.240002    19.880001
H     19.670002    14.620000    18.690001
O     21.870001    17.710001    24.380001
S     21.720001    19.260002    23.860001
O     21.110001    20.240002    24.770002
O     23.030003    19.630001    23.330002
O     20.900002    19.130001    22.440002
H     21.530001    17.660000    25.300003
H     20.010002    19.520000    22.470001
O     10.930000    20.960003    14.740001
S     11.070000    19.330002    14.530001
O     12.360001    19.050001    13.890000
O     10.820000    18.910000    15.910001
O      9.800000    18.680000    13.700001
H     11.730001    21.440001    14.460001
H     10.060000    18.380001    12.810000
O     14.170000    24.580002    12.060001
S     15.600000    24.930000    12.800001
O     15.670000    24.660000    14.230001
O     16.670000    24.710003    11.820001
O     15.400001    26.560001    12.940001
H     14.000001    23.620003    12.150001
H     15.090000    26.870001    13.810000
O     13.290001    22.550001    17.990002
S     14.010000    21.360001    17.120001
O     15.400001    21.280001    17.580002
O     12.970000    20.360001    17.350002
O     13.920001    21.860001    15.550001
H     13.890000    22.990000    18.630001
H     14.780001    21.660002    15.150002
O     14.720001    14.080001    23.190001
S     15.950001    14.090000    24.280003
O     15.960001    15.530001    24.540003
O     15.700001    13.240002    25.450001
O     17.330000    13.640001    23.500002
H     13.940001    13.780001    23.690002
H     17.860001    14.440001    23.320000
O     13.660001    13.490001    20.380001
S     12.120000    13.620001    19.810001
O     12.000000    15.060000    20.040001
O     11.770000    13.080001    18.500002
O     10.980000    12.920000    20.780001
H     14.190001    13.010001    19.710001
H     10.320001    12.380000    20.320000
O     23.190001    17.170002    16.440001
S     24.580002    16.460001    16.990002
O     24.799999    16.950001    18.350000
O     24.540003    15.030001    16.670000
O     25.760002    17.240002    16.140001
H     22.570002    17.370001    17.170002
H     25.360001    17.830002    15.480001
O     18.210001    10.820000    22.090000
S     16.770000    10.470000    21.360001
O     15.980000    11.520000    20.710001
O     17.090000     9.240000    20.640001
O     15.830001    10.190001    22.690001
H     18.510000    11.720000    21.870001
H     15.230001     9.440001    22.540001
O      5.500000    20.060001    16.000000
S      7.090001    20.290001    15.640001
O      7.890000    19.190002    16.180000
O      7.170000    20.630001    14.220000
O      7.520000    21.700001    16.390001
H      5.410000    19.330002    16.630001
H      7.810000    22.430000    15.820000
O     20.780001    16.460001    21.510000
S     21.960001    16.130001    20.420000
O     21.809999    17.110001    19.350000
O     23.230001    16.100002    21.170002
O     21.639999    14.660001    19.740002
H     21.310001    16.680000    22.299999
H     22.470001    14.160000    19.710001
O     12.810000    11.630001    23.570002
S     12.600001    11.880001    25.190001
O     13.250000    10.870000    26.040001
O     12.920000    13.300000    25.320000
O     11.040001    11.680001    25.660002
H     13.600000    11.060000    23.510000
H     10.720000    10.860001    26.080000
O     27.050001    19.240002    14.560001
S     25.750000    20.070002    13.980001
O     25.770000    21.210001    14.890001
O     25.550001    20.010002    12.530001
O     24.480001    19.300001    14.680000
H     27.570002    18.890001    13.810000
H     23.780001    19.210001    14.000001
O     18.000000    11.520000    18.100000
S     19.090000    11.900001    16.920000
O     18.140001    11.840000    15.820000
O     19.830000    13.110001    17.310001
O     20.090000    10.590000    16.980001
H     17.100000    11.460000    17.740000
H     21.030003    10.830001    16.870001
O     20.310001    21.010000    13.350000
S     21.310001    20.280001    12.270001
O     22.560001    20.100000    13.020000
O     20.660000    19.220001    11.490001
O     21.860001    21.530001    11.360001
H     19.480001    20.530003    13.510000
H     21.750002    21.440001    10.400001
O     12.490001     8.040000    20.110001
S     13.110001     9.490001    19.630001
O     12.360001    10.160000    18.570002
O     13.570002    10.080000    20.889999
O     14.490002     8.830000    19.020000
H     11.590000     7.940001    19.760000
H     14.600000     9.370001    18.220001
O      9.840000    26.580002    22.270000
S      9.970000    25.080002    21.600000
O     11.280001    24.530001    21.950001
O      8.830000    24.180002    21.780003
O     10.310000    25.230000    19.990002
H      9.260000    26.660002    23.050001
H      9.570000    24.930000    19.440001
O      5.310000    17.850000    18.230001
S      5.440001    16.450001    17.370001
O      5.240001    17.000000    16.020000
O      6.690001    15.850000    17.850000
O      4.180000    15.390000    17.410000
H      5.980000    17.880001    18.940001
H      4.490000    14.530001    17.740000
O     20.270002    17.150000    14.260001
S     19.320000    16.010000    14.980000
O     18.350000    16.780001    15.750000
O     18.940001    14.790001    14.250001
O     20.240002    15.750000    16.320002
H     20.540001    16.940001    13.350000
H     20.470001    14.810000    16.320002
O     12.300000    10.790000    15.640001
S     13.490001     9.800000    15.070001
O     14.320001    10.780001    14.360001
O     14.200001     9.100000    16.140001
O     12.620001     8.710001    14.200001
H     12.480000    11.080000    16.560001
H     12.770000     7.800000    14.510001
O     11.670000    20.260000    23.630001
S     11.730001    18.640001    23.940001
O     10.540000    18.340000    23.130001
O     13.110001    18.310001    23.590002
O     11.610001    18.580000    25.580002
H     11.030001    20.720001    23.050001
H     10.920000    17.980001    25.920000
O     17.080000    26.480003    22.240002
S     18.460001    26.100002    23.050001
O     18.740002    27.280003    23.880001
O     18.390001    24.720001    23.510000
O     19.650002    26.110001    21.900002
H     16.700001    27.290001    22.630001
H     19.690001    25.240002    21.460001
O     24.139999    12.830001    14.960001
S     22.610001    12.740001    14.350000
O     22.260000    11.330000    14.520000
O     21.870001    13.940001    14.740001
O     23.070002    12.840000    12.770000
H     24.360001    13.470001    15.660001
H     22.690001    12.140001    12.210001
O     18.480000    18.410000     9.650001
S     18.130001    16.900002    10.220001
O     18.300001    16.070002     9.020000
O     18.660000    16.530001    11.530000
O     16.540001    17.100000    10.590000
H     19.180000    18.760000    10.220001
H     15.860001    16.470001    10.300001
O     14.540001    17.270000    12.490001
S     14.330001    16.240002    13.760000
O     15.430001    15.290001    13.550000
O     14.160000    16.730001    15.130001
O     13.070001    15.380001    13.140000
H     14.410001    18.180000    12.830001
H     12.340001    15.320001    13.780001
O     11.300000    18.660000     9.740001
S     10.790000    17.220001    10.350000
O     10.850000    17.240002    11.810001
O      9.510000    16.950001     9.680000
O     11.690001    15.900001     9.950001
H     11.630001    19.240002    10.450001
H     11.720000    15.430001    10.800000
O     10.559999    14.960001    22.560001
S      9.900001    14.900002    24.070000
O      8.780001    15.820000    23.830002
O      9.420000    13.540001    24.380001
O     10.740000    15.290001    25.430002
H     10.530001    14.160000    22.020000
H     10.820000    14.620000    26.120003
O     17.180000    25.360001    19.130001
S     16.730001    24.139999    18.130001
O     17.640001    23.030003    17.840000
O     15.600000    23.930000    19.040001
O     16.430000    25.000000    16.760002
H     18.060001    25.270002    19.550001
H     16.390001    24.330002    16.049999
O      3.940000    21.520002    21.160002
S      4.980000    20.300003    21.530001
O      4.490000    19.090000    20.860003
O      6.340000    20.840000    21.450003
O      4.700000    19.980001    23.120001
H      3.550000    21.470001    20.270002
H      5.620000    20.090000    23.420000
O     20.740002    23.660002    17.510000
S     20.310001    22.550001    16.370001
O     19.910000    21.350000    17.120001
O     19.420002    23.130001    15.360001
O     21.800001    22.330000    15.710001
H     20.350000    23.450001    18.380001
H     21.760002    22.650002    14.780001
O     11.280001    12.370001    12.220000
S      9.860001    13.060001    12.690001
O      8.660001    12.600001    11.970000
O      9.840000    13.420000    14.110001
O     10.050000    14.560001    12.030001
H     10.940001    11.530000    11.860001
H      9.190001    14.890001    11.730001
O     21.010000    14.640001    23.640001
S     21.870001    13.240002    23.710001
O     22.760000    13.470001    22.570002
O     22.160000    13.180000    25.150002
O     20.930002    12.080001    23.010002
H     20.940001    15.060000    24.510002
H     20.960003    11.270000    23.549999
O     13.240002    18.080002    28.420002
S     13.960000    16.880001    27.550001
O     15.300001    16.730001    28.130001
O     12.920000    15.860001    27.360001
O     14.460001    17.620001    26.160002
H     13.670001    18.390001    29.230001
H     14.040001    17.170002    25.410002
O     18.700001    26.080000    15.160000
S     19.520000    27.140003    16.120001
O     18.440001    27.660000    16.960001
O     20.680000    26.410000    16.630001
O     20.000000    28.480000    15.280001
H     19.010002    25.200003    15.440001
H     20.970001    28.470001    15.280001
O     18.150002    17.820000    23.330002
S     17.250000    19.220001    23.050001
O     17.150000    19.380001    21.570000
O     16.000000    18.850000    23.760002
O     17.980001    20.330000    23.740002
H     18.340000    17.350002    22.470001
O     16.660002    21.790001    14.350000
S     16.620001    20.110001    14.170000
O     18.040001    19.770000    14.470000
O     15.680000    19.570002    15.190001
O     16.070002    19.970001    12.800001
H     17.570002    22.200001    14.340000
O     20.120001    21.330002    20.040001
S     19.620001    22.530001    21.119999
O     18.150002    22.299999    21.090002
O     20.370003    22.290001    22.380001
O     19.930002    23.800001    20.389999
H     21.030003    20.960003    20.190001
O     17.760002    14.830000    27.270002
S     19.280001    14.600000    26.570000
O     20.270002    14.870001    27.640001
O     19.290001    13.220000    26.010000
O     19.350000    15.670000    25.530003
H     17.260000    13.970001    27.160000
O     14.480000    20.559999    25.560001
S     15.660001    21.230001    26.570000
O     14.920001    22.160000    27.480001
O     16.360001    20.070002    27.180002
O     16.480001    22.070000    25.650002
H     14.820002    20.550001    24.620001
O     14.260001    13.300000    15.630001
S     14.950001    13.790001    17.100000
O     14.820002    12.550001    17.910002
O     16.380001    13.990001    16.760002
O     14.150001    15.000001    17.440001
H     13.440001    13.820001    15.380001
O     10.170001    23.240002    24.870003
S      8.840000    22.200001    24.700001
O      9.290000    21.260002    25.770000
O      7.560000    22.920000    24.950001
O      8.970000    21.650002    23.320000
H     10.650001    23.410000    24.000000
O     16.290001    12.680000    13.740001
H     15.460001    12.190001    13.830000
H     16.160000    13.650000    13.760000
H     16.840002    12.330000    14.460001
O     17.360001    17.620001    25.960003
H     17.530001    16.660002    25.960003
H     16.440001    17.920000    26.110001
H     17.490002    17.920000    25.040001
O     19.210001    22.480001    24.950001
H     18.930000    23.310001    25.380001
H     19.690001    22.610001    24.110001
H     18.450001    21.920002    24.710003
