347
NATURAL 3H_R_C3_k1 t=5780.0 HSO=6 HHS=39 H3O=3
N     15.190001    15.470000    12.890000
C     15.230001    14.590001    14.070001
C     16.720001    14.530001    14.430000
C     14.390000    15.090000    15.220001
O     13.810000    14.080001    15.940001
N     14.190001    16.410000    15.540000
C     13.410001    16.880001    16.670000
C     14.240000    16.840002    17.950001
C     12.690001    18.180000    16.390001
O     13.190001    19.420002    16.710001
O     11.470001    18.220001    15.780001
H     15.690001    14.930000    12.200001
H     14.290000    15.710001    12.490001
H     14.830000    13.640001    13.720001
H     14.630001    17.150000    15.010000
H     12.630000    16.150002    16.900002
H     11.260000    17.420002    15.320001
H     17.420002    14.100000    13.710001
H     16.750000    13.810000    15.250001
H     17.170002    15.420000    14.860001
H     15.010000    17.600000    18.040001
H     14.720001    15.860001    18.080002
H     13.580000    16.890001    18.810001
H     15.710001    16.330002    12.960000
H     14.040001    13.190001    15.710001
H     12.520000    20.080002    16.580002
O     12.210001    11.870001    13.410001
S     11.880001    10.260000    13.570002
O     10.510000     9.910001    13.190001
O     13.010001     9.340000    13.360001
O     12.050000    10.430001    15.200001
H     11.670000    12.290001    12.710000
H     11.200000    10.130000    15.540000
O     20.100000    15.730000    12.420001
S     19.190002    16.260000    11.160001
O     19.330002    15.450001     9.940001
O     17.880001    16.400002    11.820001
O     19.860001    17.750000    11.010000
H     20.750000    15.050001    12.160001
H     19.120001    18.380001    11.060000
O     14.930000     8.740000    23.160002
S     14.290000    10.170001    22.650002
O     14.450001    11.220001    23.660002
O     14.800000    10.460000    21.310001
O     12.650002    10.350000    22.550001
H     15.590000     8.390000    22.540001
H     12.290001    10.650001    21.700001
O     10.580001    23.900002    16.140001
S     10.270000    22.380001    16.690001
O      9.330000    21.670000    15.820000
O     11.510000    21.709999    17.070002
O      9.680000    22.810001    18.170000
H     11.480000    24.030001    15.790001
H      8.820001    22.440002    18.450001
O     20.950001    17.500002    15.150002
S     19.910000    18.630001    15.770000
O     19.880001    18.640001    17.230000
O     19.530001    19.870001    15.100001
O     18.540001    17.720001    15.610001
H     21.740000    17.850000    14.720001
H     17.770000    18.120001    15.170001
O     14.470000    14.610001    26.270000
S     15.880001    15.140000    25.610001
O     15.950001    16.600000    25.720001
O     16.890001    14.170000    26.030003
O     15.780001    14.940001    23.980000
H     14.140000    15.210000    26.960001
H     16.650002    14.580001    23.710001
O      5.680000    11.070000    16.580002
S      6.960001    12.090001    16.710001
O      8.390000    11.770000    16.790001
O      6.700000    12.870001    15.490000
O      6.500000    13.140000    17.889999
H      6.020000    10.160000    16.530001
H      7.270000    13.220000    18.470001
O     15.180001    18.990000    20.340002
S     13.760000    19.630001    20.889999
O     12.860001    18.490002    21.080000
O     14.110001    20.650002    21.880001
O     12.910000    20.300003    19.650002
H     15.820000    19.010002    21.060001
H     12.670001    21.190002    19.960001
O     13.250000    12.540001     9.680000
S     12.790001    10.960001     9.620001
O     13.110001    10.300001     8.350000
O     13.270000    10.310000    10.840001
O     11.180000    10.620001     9.490001
H     14.200001    12.700001     9.810000
H     10.620001    11.390000     9.320001
O      9.800000    21.820002    22.110003
S     10.400001    21.340000    23.560001
O      9.990001    19.940001    23.690002
O     11.790000    21.700001    23.890001
O      9.530001    21.880001    24.850002
H     10.640000    22.090000    21.700001
H      9.700001    22.830000    24.950001
O     21.210001     7.040000    16.980001
S     20.610001     7.610001    15.560001
O     20.070002     8.960000    15.770000
O     21.480000     7.260000    14.430000
O     19.190002     6.830000    15.280001
H     22.090000     6.670001    16.820000
H     19.200001     6.330000    14.450001
O     14.780001    15.760001    21.250000
S     14.620000    14.120001    21.200001
O     13.950001    13.840000    19.920002
O     16.020000    13.740001    21.400002
O     13.680000    13.660001    22.470001
H     14.190001    16.140001    21.930000
H     14.070001    12.970000    23.030003
O     20.470001    16.370001    24.280003
S     19.850002    14.970001    23.650000
O     19.400002    14.280001    24.860001
O     18.900002    15.060000    22.550001
O     21.330002    14.280001    23.400002
H     20.160000    17.030001    23.640001
H     21.320002    13.790001    22.560001
O     17.450001    20.220001     8.530001
S     19.060001    19.960001     8.340000
O     19.400002    20.300003     9.720000
O     19.540001    18.700001     7.760000
O     19.550001    21.260002     7.460001
H     17.050001    19.350000     8.370000
H     20.170002    21.020000     6.750000
O     18.260000    14.260001    19.740002
S     18.320002    15.610001    18.800001
O     17.120001    15.300001    18.010002
O     18.370001    16.740000    19.730000
O     19.690001    15.410002    17.900002
H     18.260000    14.390000    20.700001
H     20.150002    16.260000    17.770000
O      8.960000    18.040001    13.980001
S      7.870001    17.290001    14.950001
O      7.900000    15.980000    14.290000
O      8.510000    17.630001    16.220001
O      6.560000    18.250000    14.670001
H      9.400001    17.510000    13.290001
H      6.360001    18.680000    15.510001
O      7.490000     8.840000    13.350000
S      8.130000     8.220000    14.740001
O      8.730000     6.900001    14.510001
O      8.700001     9.420000    15.340000
O      6.800000     7.990000    15.680000
H      7.710000     8.310000    12.570001
H      6.720000     7.040000    15.850000
O     24.850002    14.990001    16.970001
S     24.270000    14.320001    15.580001
O     24.820002    12.970000    15.410002
O     22.910002    14.670001    15.170001
O     25.340002    14.920001    14.470000
H     24.370001    15.540000    17.620001
H     24.880001    15.220001    13.670001
O     11.240001    14.490002    24.030001
S     11.400002    15.940001    23.280001
O     11.250000    15.620001    21.850002
O     10.610001    16.940001    24.010000
O     12.910000    16.560001    23.500002
H     10.670000    14.430000    24.820002
H     13.020000    17.440001    23.900002
O      6.460000    21.200001    15.810001
S      6.160001    20.920000    17.410000
O      6.310000    19.470001    17.260000
O      7.010000    21.860001    18.150002
O      4.600000    21.420002    17.470001
H      7.190001    21.750002    15.480001
H      4.440001    21.780003    18.360001
O     10.640000    14.170000    16.630001
S     10.160000    14.410001    18.180000
O      9.120001    15.400001    17.870001
O      9.880000    13.170000    18.920000
O     11.460000    15.200001    18.810001
H     10.530001    13.310001    16.180000
H     12.000000    14.560001    19.320000
O     15.380001    24.150002    16.210001
S     14.430000    24.460001    14.900002
O     14.560001    23.210001    14.140000
O     13.150001    24.690001    15.580001
O     14.830000    25.790003    14.030001
H     16.140001    24.720001    16.010000
H     14.210001    26.530001    14.180001
O     16.540001    15.140000     8.800000
S     15.730000    14.590001     7.470000
O     16.410000    14.840001     6.200000
O     15.460001    13.180000     7.770000
O     14.300001    15.420000     7.550001
H     17.510000    15.090000     8.700001
H     14.260001    15.990001     6.770000
O      4.230000    17.500002    16.340000
S      4.610000    16.590000    17.660000
O      5.100000    17.460001    18.730001
O      3.500000    15.650001    17.840000
O      5.930000    15.780001    17.110001
H      3.310000    17.300001    16.090000
H      5.870000    14.870001    17.450001
O     20.610001    12.800001     8.840000
S     19.660000    12.940001     7.500000
O     18.520000    12.110001     7.890000
O     19.350000    14.250001     6.900001
O     20.620001    12.110001     6.450000
H     20.780001    13.560000     9.420000
H     20.820000    12.630000     5.650000
O     14.880000    19.760000    10.080000
S     14.650001    18.260000     9.440001
O     15.740002    18.040001     8.480000
O     14.570000    17.330000    10.570001
O     13.180000    18.390001     8.700001
H     14.930000    19.740002    11.050000
H     12.480000    17.720001     8.770000
O     10.750000    10.430001    18.100000
S     12.170000    11.070000    18.650002
O     12.760000    11.910001    17.610001
O     12.110001    11.330000    20.090000
O     13.050001     9.680000    18.630001
H      9.960001    10.900001    18.420002
H     13.850001     9.840000    18.110001
O     22.220001    12.520000    13.460001
S     22.830000    13.060001    12.020000
O     23.790001    12.090001    11.470001
O     21.690002    13.660001    11.320001
O     23.780001    14.400001    12.140001
H     22.550001    11.690001    13.850001
H     24.580002    14.370001    11.590000
O     11.040001     5.120000    16.270000
S     11.520000     6.620001    16.770000
O     12.450000     6.530001    17.900002
O     11.830001     7.410001    15.580001
O     10.060000     7.030000    17.410000
H     11.080000     5.160000    15.290001
H     10.190001     7.160000    18.360001
O      9.490001    15.320001     8.830000
S     10.420000    15.630001     7.500000
O     11.130000    16.910002     7.530000
O     11.040001    14.310001     7.570000
O      9.360001    15.720000     6.240000
H      9.780001    15.880001     9.570000
H      9.590000    16.560001     5.810000
O      8.090000    11.550001    12.130001
S      9.000000    12.920000    12.040001
O     10.290001    12.630000    11.420001
O      8.030001    13.920001    11.580001
O      9.370001    13.390001    13.580000
H      8.580000    10.750000    11.880001
H      9.150001    14.330001    13.690001
O      8.420001    17.560001    19.330002
S      9.690001    18.600002    19.430000
O     10.940001    18.060001    18.890001
O      9.180000    19.980001    19.370001
O      9.990001    18.720001    21.040001
H      8.620001    16.720001    18.880001
H     10.900001    18.450001    21.250000
O     18.780001    11.480000    15.080000
S     19.760000    12.370001    16.060001
O     18.800001    12.840000    17.060001
O     21.020000    11.760000    16.510000
O     20.180000    13.820001    15.390000
H     18.930000    10.520000    15.170001
H     21.049999    14.030001    15.780001
O     22.220001    10.460000    18.610001
S     20.910000    10.330000    19.600000
O     19.970001    11.440001    19.370001
O     20.290001     9.010000    19.550001
O     21.520002    10.680000    21.090002
H     22.040001    10.850000    17.740000
H     21.390001     9.980000    21.740000
O     19.910000    10.650001    10.750000
S     19.560001     9.610001    11.980000
O     20.559999     9.810000    13.030001
O     18.120001     9.410001    12.150001
O     20.380001     8.280001    11.470001
H     19.230001    11.220001    10.360001
H     19.840000     7.470000    11.440001
O     10.220001    20.240002    12.590000
S     11.430000    21.300001    12.930001
O     11.040001    22.720001    12.890000
O     11.820001    20.770000    14.240000
O     12.610001    20.940001    11.830001
H      9.380000    20.720001    12.680000
H     13.110001    21.720001    11.530000
O     18.220001    20.980000    18.670002
S     17.590000    22.190001    17.740000
O     17.510000    23.500002    18.400000
O     17.980001    22.060001    16.340000
O     16.040001    21.620003    17.690001
H     19.100000    20.620001    18.460001
H     15.370001    22.240002    18.040001
O     15.950001    24.870003    11.320001
S     16.160000    23.270000    10.990001
O     17.440001    22.810001    11.550001
O     14.890001    22.710001    11.450001
O     16.330002    22.900002     9.400001
H     15.120001    25.090000    11.780001
H     15.670000    22.210003     9.180000
O      6.120000    21.490002    10.900001
S      6.770000    20.770000    12.230000
O      7.190001    19.440001    11.790000
O      7.710000    21.630001    12.940001
O      5.270000    20.680000    12.920000
H      6.440001    22.400000    10.780001
H      4.920000    19.840000    13.260001
O     14.380001     9.250001    16.230000
S     15.700001    10.260000    15.930000
O     16.430000    10.260000    17.230000
O     16.320002     9.440001    14.860001
O     15.000001    11.510000    15.540000
H     13.480000     9.600000    15.950001
O     15.400001    19.920002    12.650002
S     16.630001    19.180000    13.530001
O     17.780001    19.400002    12.600001
O     16.780001    19.820002    14.870001
O     16.110001    17.810001    13.810000
H     15.200001    20.830002    13.020000
O     16.270000    11.640000    12.640000
S     16.450001    12.210001    11.060000
O     15.480001    13.330001    10.920000
O     17.860001    12.590000    10.770000
O     16.000000    10.980000    10.330000
H     17.200001    11.590000    13.010001
O     15.880001    18.060001    23.190001
S     17.030001    19.290001    23.360003
O     18.040001    18.700001    24.290001
O     17.540001    19.540001    21.980001
O     16.280001    20.450001    23.930000
H     16.130001    17.210001    23.650000
O     11.720000    22.810001    20.440002
S     13.030001    23.840000    20.180000
O     12.590000    25.100002    19.520000
O     13.500000    23.920002    21.590002
O     13.940001    23.080002    19.280001
H     11.000000    23.040001    19.780001
O     12.660000    17.280001    13.310001
S     11.580001    16.040001    12.930001
O     10.970000    15.910001    14.280001
O     10.660001    16.430000    11.820001
O     12.370001    14.840001    12.520000
H     12.530001    18.110001    12.760000
O     17.050001    11.810001    19.530001
H     17.640001    12.550001    19.330002
H     17.700001    11.090001    19.640001
H     16.540001    11.580001    18.730001
O     15.500001     8.880001    11.950001
H     15.230001     9.300001    12.780001
H     16.460001     8.710001    11.960001
H     15.310000     9.590000    11.310000
O     18.570002    22.010002    13.820001
H     18.360001    21.080000    13.620001
H     18.270000    22.320002    14.690001
H     18.220001    22.630001    13.160001
