350
NATURAL 3H_R_T4_k0 t=8220.0 HSO=6 HHS=40 H3O=2
N     23.710001    24.540003    17.320002
C     23.870001    24.360001    18.780001
C     23.380001    25.620001    19.500000
C     23.110001    23.140001    19.240002
O     23.780001    22.180002    19.950001
N     21.880001    22.870003    18.670002
C     21.310001    21.540001    18.750002
C     20.620001    21.330002    20.100000
C     20.450001    21.130001    17.580002
O     21.010000    20.340002    16.620001
O     19.210001    21.690002    17.380001
H     24.480001    25.110001    17.000000
H     23.880001    23.640001    16.910002
H     24.930000    24.300001    19.040001
H     21.310001    23.530003    18.170000
H     22.030001    20.730001    18.660000
H     19.100000    21.690002    16.440001
H     23.540001    25.459999    20.570002
H     22.380001    26.020002    19.370001
H     24.020002    26.450003    19.220001
H     21.300001    21.470001    20.940001
H     20.130001    20.360001    20.190001
H     19.810001    22.060001    20.130001
H     22.840002    24.920002    16.990002
H     24.700001    22.380001    20.040001
H     21.890001    20.000000    16.650002
O     19.220001    26.250002    23.190001
S     20.430000    26.990002    22.350002
O     21.330002    26.020002    21.730001
O     19.590000    27.960003    21.630001
O     21.470001    27.700003    23.410000
H     18.400000    26.630001    22.810001
H     21.460001    28.680000    23.350000
O     21.430000    20.240002    26.810001
S     21.410000    20.590000    28.420002
O     22.320002    19.630001    29.050003
O     21.530001    22.050001    28.280001
O     19.780001    20.459999    28.570002
H     21.700001    21.010000    26.270000
H     19.650002    19.740002    29.220001
O     16.730001    18.340000    12.570001
S     15.100001    18.450001    12.830001
O     14.630001    19.840000    12.790001
O     14.620000    17.460001    11.850000
O     14.860001    17.980001    14.390000
H     17.200001    19.170000    12.380000
H     14.180001    17.290001    14.470000
O     17.630001    23.160002    19.910000
S     17.960001    24.700001    19.410002
O     19.410002    24.950001    19.410002
O     17.140001    24.970001    18.230001
O     17.530001    25.670002    20.670002
H     16.960001    22.850000    19.270000
H     17.020000    26.450003    20.389999
O     21.620003    21.500000    12.430000
S     22.060001    23.040001    12.040001
O     20.830002    23.850002    12.020000
O     23.300001    23.490002    12.680000
O     22.310001    23.140001    10.420000
H     20.810001    21.430000    12.960000
H     23.250000    23.300001    10.230000
O     20.470001    16.890001    14.640001
S     22.060001    17.100000    15.010000
O     22.130001    17.140001    16.470001
O     22.950001    16.280001    14.190001
O     22.320002    18.610001    14.390000
H     20.430000    16.090000    14.090000
H     23.120001    18.750002    13.860001
O     23.260002    28.850002    10.530001
S     22.270000    27.650002    11.050000
O     23.070002    26.430000    10.910001
O     21.820002    28.040001    12.390001
O     20.900002    27.780001    10.140000
H     24.120003    28.440001    10.300001
H     20.870001    27.100000     9.440001
O     29.940002    26.830002    11.430000
S     29.230001    27.980001    12.380000
O     28.420002    27.350002    13.430000
O     30.290001    28.930000    12.720001
O     28.100002    28.360003    11.240001
H     30.290001    26.120003    11.990000
H     28.610001    29.040001    10.780001
O     20.320000    31.400002    25.400002
S     21.340000    31.930000    24.220001
O     21.970001    30.680000    23.780001
O     20.730001    32.730003    23.150002
O     22.610001    32.690002    24.930000
H     19.420002    31.540001    25.060001
H     22.860001    33.520004    24.470001
O     15.930000    15.010000    16.900002
S     17.210001    14.670001    15.920001
O     18.410000    14.710001    16.770000
O     16.850000    13.600000    14.980000
O     17.240002    16.180000    15.280001
H     15.330001    14.320001    16.570000
H     17.030001    16.020000    14.340000
O     20.840000    25.490000    14.500000
S     20.550001    25.880001    16.070002
O     19.190002    26.430000    16.160000
O     20.930002    24.690001    16.830002
O     21.720001    26.800001    16.780001
H     20.100000    25.740002    13.920001
H     21.290001    27.590000    17.160000
O     16.160000    17.230000    18.930000
S     16.790001    18.560001    18.200001
O     15.840001    18.870001    17.120001
O     17.210001    19.500000    19.240002
O     18.230001    18.190001    17.490002
H     16.650002    16.510000    19.360001
H     18.230001    18.390001    16.530001
O     30.000002    22.760000    18.650002
S     28.630001    22.900002    17.730001
O     27.790001    24.070000    17.980001
O     29.160002    22.980001    16.370001
O     27.850000    21.460001    17.930000
H     30.080002    23.590002    19.150002
H     26.890001    21.590002    17.860001
O     14.030001    26.030003    17.360001
S     13.100000    25.540001    18.620001
O     13.140000    26.800001    19.370001
O     11.980000    24.790001    18.030001
O     14.030001    24.380001    19.340002
H     13.550000    25.750000    16.560001
H     14.290000    24.650002    20.240002
O     19.830000    21.530001     9.520000
S     19.730000    19.900002     9.730000
O     18.460001    19.460001    10.320001
O     20.310001    19.260002     8.540000
O     20.889999    19.460001    10.810001
H     19.810001    21.670000     8.550000
H     20.380001    19.380001    11.630001
O     25.330002    27.780001    13.470001
S     25.360001    28.060001    15.090000
O     25.530003    26.860001    15.900001
O     26.170002    29.280003    15.130001
O     23.880001    28.560001    15.620001
H     25.470001    26.860001    13.180000
H     24.010000    29.470001    15.940001
O     15.170001    21.130001    15.540000
S     15.360001    22.410002    16.570000
O     14.160000    23.240002    16.580002
O     15.930000    21.930000    17.840000
O     16.800001    22.950001    15.980000
H     15.320001    20.360001    16.110001
H     16.560001    23.820002    15.630001
O     17.630001    20.610001    22.980001
S     18.220001    22.070000    23.480000
O     19.430000    22.500000    22.770002
O     17.170002    23.010002    23.900002
O     19.130001    21.639999    24.780003
H     16.720001    20.670002    22.650002
H     18.710001    21.990002    25.580002
O     24.890001    22.790001    23.960001
S     23.310001    22.400000    23.670002
O     23.500002    21.230001    22.800003
O     22.560001    22.080002    24.890001
O     22.640001    23.470001    22.610001
H     25.450001    22.010002    23.840000
H     21.940001    24.020002    22.970001
O     21.330002    24.810001    27.140003
S     22.910002    25.260000    27.030001
O     22.870003    26.610001    27.590000
O     23.800001    24.170000    27.440002
O     23.100002    25.210001    25.389999
H     21.380001    24.110001    27.820000
H     23.640001    25.970001    25.100002
O     23.200001    16.750000    19.040001
S     21.990002    17.240002    20.030001
O     20.980000    18.030001    19.310001
O     21.750002    16.350000    21.170002
O     22.660000    18.540001    20.790001
H     22.940002    16.830002    18.100000
H     22.610001    18.270000    21.720001
O     15.110001    20.270002    21.370001
S     14.140000    21.570000    21.620003
O     14.980000    22.770002    21.530001
O     12.880001    21.420002    20.889999
O     13.810000    21.240002    23.200001
H     14.650001    19.740002    20.700001
H     13.600000    22.090000    23.620003
O     22.980001    14.200001    16.840002
S     21.770000    13.450001    17.670000
O     20.790001    12.680000    16.910002
O     22.540001    12.910000    18.800001
O     20.970001    14.840001    18.020000
H     23.260002    13.770000    16.010000
H     20.010002    14.840001    17.840000
O     18.510000    17.460001    22.020000
S     18.380001    15.840001    21.780003
O     19.100000    15.050001    22.790001
O     16.950001    15.830001    21.470001
O     19.030001    15.540000    20.290001
H     18.820002    17.580002    22.940002
H     19.630001    14.840001    20.610001
O     27.950001    24.799999    14.090000
S     26.490002    24.050003    13.990001
O     26.440001    22.730000    13.350000
O     25.910000    24.170000    15.340000
O     25.630001    24.990002    12.940001
H     28.680000    24.200001    13.880000
H     25.380001    24.490002    12.150001
O     25.430002    20.120001    25.340002
S     25.870001    20.889999    26.730001
O     26.430000    19.780001    27.520000
O     26.580002    22.040001    26.170002
O     24.430000    21.450003    27.310001
H     25.600002    19.170000    25.480001
H     24.380001    22.410002    27.400002
O     16.670000    26.060001    11.750001
S     17.570002    25.150002    12.790001
O     18.790001    25.960003    12.900001
O     16.610001    24.920002    13.870001
O     17.830002    23.690002    12.060001
H     15.760001    26.280001    12.010001
H     17.700001    22.889999    12.600001
O     13.630000    16.860001    17.430000
S     12.940001    17.640001    18.710001
O     13.720001    18.750002    19.260002
O     11.610001    17.970001    18.170000
O     12.460001    16.450001    19.740002
H     14.470000    17.340000    17.280001
H     12.800001    16.510000    20.650002
O     21.060001    16.330002     9.910001
S     20.240002    15.640001    11.160001
O     21.000002    15.120001    12.300000
O     19.000000    16.380001    11.420001
O     19.910000    14.250001    10.330000
H     21.920002    16.700001    10.170001
H     18.950001    14.250001    10.200001
O     31.360001    24.310001    21.330002
S     30.490002    25.710001    21.230001
O     29.840002    25.130001    20.050001
O     29.880001    26.160002    22.490002
O     31.530001    26.720001    20.450001
H     31.160002    23.720001    22.080002
H     31.630001    27.540001    20.960003
O     24.660000    27.560001    24.510002
S     25.200003    27.120001    23.020000
O     24.420002    25.910000    22.720001
O     25.050001    28.280001    22.139999
O     26.800001    26.760002    23.180000
H     24.520000    28.520002    24.480001
H     27.060001    25.950001    22.720001
O     14.760000    22.340002    12.920000
S     13.260001    22.780001    12.390001
O     12.720001    21.790001    11.450001
O     12.420001    23.270000    13.480000
O     13.590001    24.209999    11.640000
H     14.560001    21.390001    12.960000
H     13.310001    24.209999    10.710001
O     19.760000    17.900002    24.970001
S     18.790001    17.040001    25.990002
O     19.840000    16.110001    26.400002
O     18.100000    17.950001    26.910002
O     17.670000    16.330002    25.020000
H     20.050001    18.660000    25.500002
H     17.590000    15.420000    25.360001
O     24.100000    15.840001    23.740002
S     24.750002    17.310001    23.370001
O     25.750000    17.470001    24.430000
O     25.090000    17.290001    21.940001
O     23.410000    18.270000    23.440001
H     24.170000    15.210000    23.000002
H     23.500002    19.160002    23.820002
O     22.700003    31.100002    19.430000
S     21.920002    29.700001    19.820002
O     21.600000    29.030001    18.550001
O     22.570002    29.100000    20.980000
O     20.590000    30.510002    20.380001
H     23.549999    31.090002    19.920002
H     19.700001    30.130003    20.340002
O     12.380000    21.910002    18.270000
S     11.430000    21.320002    17.060001
O     10.290001    20.580002    17.610001
O     11.220001    22.299999    15.990001
O     12.290001    20.070002    16.420000
H     12.280001    22.870003    18.180000
H     11.830001    19.240002    16.620001
O     25.590000    28.400002    19.000000
S     26.930000    27.610001    19.540001
O     27.740002    28.630001    20.210001
O     26.520002    26.340000    20.140001
O     27.790001    27.180002    18.190001
H     25.590000    29.290001    19.400002
H     28.060001    26.250002    18.140001
O     26.700001    30.750000    17.470001
S     25.620001    31.790001    16.780001
O     25.880001    33.010002    17.540001
O     26.110001    31.710003    15.400001
O     24.030001    31.370001    16.700001
H     27.270002    30.320000    16.800001
H     23.630001    32.170002    17.080000
O     26.490002    18.850000    17.450001
S     26.240002    18.580000    19.050001
O     27.590000    18.880001    19.550001
O     25.100002    19.330002    19.590000
O     26.200001    16.950001    19.330002
H     25.850000    19.470001    17.060001
H     25.610001    16.740000    20.070002
O     29.700001    27.090000    15.990001
S     29.940002    28.720001    16.100002
O     31.270000    28.790001    15.500001
O     28.830002    29.630001    15.830001
O     30.540001    28.910000    17.620001
H     28.820002    26.860001    15.650001
H     29.960001    29.640003    17.889999
O     19.760000    19.490002    13.380001
S     18.710001    20.630001    14.070001
O     17.780001    21.000002    12.970000
O     17.980001    19.730000    15.010000
O     19.620001    21.730001    14.480000
H     19.680000    18.650002    13.910000
O     27.030001    21.510000    22.730000
S     27.430000    22.630001    21.520002
O     27.370003    23.980000    22.130001
O     28.750002    21.990002    21.280001
O     26.390001    22.530001    20.450001
H     27.680000    20.760002    22.600000
O     16.450001    30.110001    18.090002
S     17.440001    29.460001    19.300001
O     16.810001    28.120001    19.360001
O     18.680000    29.490002    18.470001
O     17.350002    30.350000    20.500002
H     15.940001    30.850000    18.530001
O     23.300001    22.139999    15.530001
S     24.410002    21.090002    16.260000
O     24.930000    21.900002    17.400002
O     23.750000    19.850002    16.730001
O     25.490000    20.730001    15.290001
H     23.450001    22.040001    14.540001
O     25.389999    31.940002    23.059999
S     25.470001    32.170002    21.390001
O     25.660002    30.850000    20.720001
O     24.180002    32.870003    21.130001
O     26.639999    33.010002    21.030003
H     25.380001    30.960003    23.240002
O     23.680000    19.290001     9.890000
S     24.320002    18.260000    11.070000
O     25.650002    17.900002    10.510000
O     24.410002    18.960001    12.380000
O     23.380001    17.110001    11.100000
H     22.690001    19.300001    10.000000
O     16.300001    27.730003    16.460001
H     17.230000    27.900002    16.220001
H     15.680000    28.240002    15.900001
H     16.280001    28.000002    17.390001
O     29.880001    19.840000    19.910000
H     29.070000    19.590000    19.440001
H     30.700001    19.940001    19.390001
H     29.690001    20.580002    20.520000
