352
NATURAL 3H_R_T3_k0 t=3900.0 HSO=8 HHS=38 H3O=3
N     14.520000    16.730001    18.440001
C     14.290000    17.450001    17.180000
C     12.830001    17.250000    16.750000
C     14.600000    18.920000    17.280001
O     14.460001    19.730000    16.180000
N     14.640001    19.570002    18.490002
C     14.600000    21.020000    18.610001
C     14.430000    21.380001    20.080002
C     15.760001    21.790001    18.010002
O     17.050001    21.330002    18.050001
O     15.560001    23.010002    17.420002
H     14.370001    15.730000    18.510000
H     15.460001    16.820000    18.800001
H     14.990001    17.080000    16.440001
H     14.680000    19.000000    19.330002
H     13.770000    21.410000    18.020000
H     16.290001    23.490002    17.040001
H     12.630000    17.740000    15.790001
H     12.020000    17.600000    17.380001
H     12.670001    16.220001    16.440001
H     13.560000    21.049999    20.640001
H     14.170000    22.440002    20.130001
H     15.380001    21.420002    20.620001
H     13.860001    17.060001    19.130001
H     14.580001    19.250000    15.380001
H     17.290001    20.620001    18.630001
O     18.930000    27.940002    17.210001
S     19.040001    27.990000    18.850000
O     17.930000    28.880003    19.230001
O     19.230001    26.610001    19.320000
O     20.350000    28.960001    19.080002
H     19.160002    27.060001    16.860001
H     21.080000    28.530003    19.560001
O     11.260000    19.060001    22.139999
S     11.880001    17.550001    21.870001
O     10.770000    16.600000    22.020000
O     12.630000    17.700001    20.620001
O     13.050001    17.400002    23.020000
H     10.410000    19.000000    22.620001
H     13.050001    16.500000    23.390003
O      9.460000    10.690001    14.590001
S      8.400001    11.450001    15.590000
O      7.390000    10.720000    16.370001
O      9.280001    12.440001    16.210001
O      7.490000    12.380000    14.570000
H      9.750000     9.860001    15.020000
H      7.470000    13.270000    14.970001
O      6.830000    17.110001    15.290001
S      6.520000    15.710001    16.100002
O      5.130000    15.260000    15.950001
O      7.570000    14.800000    15.610001
O      6.930000    16.280001    17.590000
H      6.240000    17.560001    14.660001
H      6.240000    16.110001    18.250000
O     11.970000    14.170000    15.170001
S     13.050001    12.950001    14.920001
O     12.570001    12.210001    13.740001
O     14.410001    13.470001    15.040001
O     12.930001    12.090001    16.320002
H     11.350001    14.110001    14.420000
H     12.740001    11.180000    16.040001
O     10.120001    18.100000    18.920000
S      9.630001    19.650002    18.670002
O      9.330000    19.540001    17.240002
O      8.670000    20.080002    19.690001
O     11.050000    20.490000    18.690001
H      9.530001    17.730001    19.600000
H     10.890001    21.210001    19.330002
O     19.620001    24.770002    23.110001
S     17.990002    24.960001    23.290001
O     17.350002    24.100000    22.290001
O     17.870001    24.850002    24.750002
O     17.530001    26.520002    23.020000
H     19.820002    24.100000    22.430000
H     16.840002    26.650002    22.350002
O     15.210000    18.140001    12.020000
S     15.300001    17.100000    13.300000
O     16.639999    16.590000    13.600000
O     14.560001    18.010002    14.180001
O     14.440001    15.830001    12.700001
H     16.080000    18.140001    11.590000
H     15.020000    15.070001    12.540001
O     11.690001    24.180002    24.760000
S     11.430000    22.680000    24.130001
O     12.590000    22.369999    23.280001
O     11.150000    21.520002    24.990002
O     10.140000    22.889999    23.130001
H     12.210001    24.280003    25.580002
H     10.360001    22.730000    22.190001
O     21.630001    23.150002    12.580000
S     20.040001    22.710001    12.590000
O     19.870001    21.450003    11.870001
O     19.660000    22.710001    14.000001
O     19.380001    23.890001    11.640000
H     22.270000    23.020000    13.300000
H     18.690001    24.470001    12.000000
O     20.490000    15.680000    20.580002
S     20.730001    16.310001    19.080002
O     19.450001    16.410000    18.380001
O     21.650002    17.440001    19.280001
O     21.670000    15.150002    18.390001
H     21.030003    16.160000    21.240002
H     22.530001    15.290001    17.950001
O     14.120001    28.470001    16.170002
S     13.090000    27.299999    15.640001
O     13.690001    25.960003    15.690001
O     11.900001    27.400002    16.480001
O     12.580000    27.780001    14.150001
H     14.850000    28.080002    16.690001
H     12.760000    27.060001    13.520001
O     24.180002    18.210001    14.940001
S     22.760000    17.380001    15.060000
O     22.170000    17.790001    16.340000
O     22.220001    17.800001    13.760000
O     23.150002    15.800000    15.260000
H     24.190002    18.970001    15.550001
H     22.640001    15.320001    14.580001
O      6.930000    20.130001    15.760001
S      6.980000    21.010000    14.370001
O      5.650000    21.610001    14.480000
O      8.170000    21.860001    14.280001
O      6.710000    19.850002    13.240002
H      7.790000    20.210001    16.200001
H      7.210000    19.910000    12.400000
O     19.750002    19.490002    22.390001
S     20.389999    20.940001    22.840002
O     21.580000    20.910000    21.990002
O     19.500000    22.090000    22.630001
O     20.800001    21.070002    24.430000
H     18.860001    19.280001    22.050001
H     21.770000    21.190002    24.520000
O     10.350000    25.930002    11.580001
S     10.400001    24.799999    12.770000
O     11.650001    25.270002    13.370000
O      9.160001    24.850002    13.570002
O     10.630001    23.600002    11.660000
H      9.480000    26.360001    11.510000
H      9.990001    22.870003    11.740000
O     16.690001    26.840000    15.120001
S     17.550001    25.480001    14.780001
O     17.190001    24.550001    15.850000
O     17.620001    25.300003    13.320000
O     19.070000    25.830002    15.300001
H     16.220001    27.230000    14.360001
H     19.670002    25.690001    14.540001
O     16.620001    29.770002    16.560001
S     17.480000    31.150002    16.340000
O     18.440001    31.300001    17.440001
O     18.100000    30.970001    15.020000
O     16.300001    32.290001    16.320002
H     17.160000    29.460001    17.310001
H     16.639999    33.130001    16.680000
O     18.660000    13.640001    17.600000
S     17.580002    13.970001    16.400002
O     16.700001    15.090000    16.770000
O     18.390001    14.320001    15.240001
O     16.930000    12.520000    16.000000
H     18.300001    13.910000    18.470001
H     15.960001    12.640000    15.950001
O     19.310001    16.990002    15.610001
S     18.720001    18.510000    15.850000
O     17.280001    18.620001    15.560001
O     19.290001    18.970001    17.120001
O     19.410002    19.230001    14.540001
H     19.010002    16.260000    16.180000
H     20.330000    19.500000    14.690001
O     20.650002    12.050000    19.610001
S     19.180000    11.940001    20.330000
O     19.040001    12.920000    21.420002
O     18.060001    11.740000    19.410002
O     19.300001    10.510000    21.150000
H     20.770000    12.400000    18.710001
H     19.520000    10.550001    22.100000
O     10.350000    18.810001    13.220000
S     10.160000    17.230000    13.650000
O      9.110001    16.440001    13.010001
O     11.570001    16.820000    13.660001
O      9.880000    17.450001    15.260000
H      9.900001    19.090000    12.400000
H      9.070001    17.030001    15.590000
O     15.380001    19.300001    23.580000
S     16.120001    18.380001    24.730000
O     15.350000    18.500002    25.980000
O     16.230000    17.150000    23.930000
O     17.630001    18.990000    24.960001
H     15.280001    18.900002    22.700003
H     18.040001    18.450001    25.660002
O     14.370001    20.900002    13.070001
S     15.810001    21.660002    13.340001
O     15.900001    22.710001    12.320002
O     15.960001    21.910002    14.770001
O     16.880001    20.420000    13.150001
H     13.740001    21.330002    12.470001
H     17.690001    20.620001    13.630000
O      8.860001    14.580001    10.770000
S      9.870001    13.450001    11.410000
O     11.000000    13.570002    10.480001
O     10.090000    13.690001    12.840000
O      8.960000    12.090001    11.230000
H      8.850000    15.380001    11.320001
H      9.020000    11.560000    12.050000
O     13.030001    21.540001    10.640000
S     13.690001    21.300001     9.150001
O     14.950001    20.550001     9.180000
O     12.660000    20.860003     8.190001
O     14.170000    22.870003     9.050000
H     12.120000    21.210001    10.520000
H     14.660001    22.870003     8.210000
O     17.830002    12.050000    12.930001
S     16.330002    12.210001    12.270001
O     15.530001    11.160001    12.900001
O     16.000000    13.640001    12.320002
O     16.320002    12.030001    10.630001
H     17.880001    11.470001    13.700001
H     15.630001    11.480000    10.230000
O     23.750000    23.810001    21.420002
S     23.640001    24.160002    19.820002
O     25.010002    24.620001    19.560001
O     23.100002    22.900002    19.320000
O     22.840002    25.590000    19.630001
H     23.110001    24.290001    21.980001
H     22.040001    25.500002    19.080002
O     20.440002    23.870001    18.100000
S     19.650002    23.320000    19.440001
O     19.330002    21.890001    19.410002
O     20.370003    23.950003    20.550001
O     18.120001    23.910000    19.320000
H     20.680000    23.130001    17.530001
H     17.900002    24.500000    20.070002
O     14.980000    23.059999    24.330002
S     15.210000    22.090000    25.640001
O     14.060000    21.240002    25.950001
O     16.570000    21.590002    25.440002
O     15.590000    23.110001    26.870001
H     14.320001    22.580002    23.800001
H     15.160000    22.740002    27.660000
O      8.780001    19.960001    25.790003
S      8.010000    19.850002    24.340000
O      7.440000    21.200001    24.300001
O      8.970000    19.430000    23.310001
O      6.820001    18.720001    24.440001
H      9.640000    19.510000    25.800001
H      6.880000    18.030001    23.750000
O     10.380001    14.510001    20.180000
S     11.230000    14.040001    18.850000
O     12.480000    14.800000    18.830002
O     11.140001    12.590000    19.060001
O     10.060000    14.610001    17.830002
H     10.870000    15.040001    20.830002
H      9.660000    13.960000    17.230000
O     12.910000    23.059999    15.600000
S     11.580001    22.180002    15.180001
O     10.470000    22.980001    15.710001
O     11.650001    21.850002    13.760000
O     11.650001    20.720001    15.940001
H     12.710000    23.920002    16.010000
H     10.780001    20.360001    16.180000
O     13.570002    26.840000    19.040001
S     15.160000    26.740000    19.480001
O     15.510001    25.389999    19.930002
O     15.800000    27.480001    18.390001
O     15.300001    27.770002    20.760002
H     13.190001    25.950001    18.940001
H     15.890001    28.540001    20.630001
O     13.160001    27.170002    25.070002
S     12.990000    27.380001    23.440001
O     11.540001    27.280003    23.280001
O     13.730000    28.620003    23.210001
O     13.720001    26.020002    22.850000
H     13.350000    27.950001    25.620001
H     13.060001    25.630001    22.250002
O     12.330000    15.810001     9.560000
S     11.620001    17.280001     9.780001
O     11.630001    18.020000     8.510000
O     10.420000    16.920000    10.540000
O     12.710000    18.070000    10.740000
H     11.670000    15.180001     9.900001
H     12.290001    18.470001    11.520000
O     13.420000    27.140003    11.500001
S     14.840001    26.310001    11.660000
O     15.370001    26.350002    10.300001
O     15.220001    27.090000    12.840000
O     14.440001    24.799999    12.180000
H     13.380001    27.760000    10.760001
H     15.030001    24.050003    11.960001
O      8.150001    23.040001    19.139999
S      6.710000    23.560001    19.740002
O      6.900001    24.950001    20.190001
O      5.720000    23.040001    18.800001
O      6.670001    22.770002    21.180000
H      8.870000    23.690002    19.040001
H      5.890000    22.200001    21.240002
O     15.040001    15.130001    21.210001
S     15.760001    14.010000    20.160000
O     15.860001    12.800001    21.030003
O     15.030001    13.730000    18.890001
O     17.050001    14.660001    19.810001
H     14.440001    14.530001    21.750002
O     16.560001    12.180000    26.240002
S     16.350000    12.300000    24.570000
O     15.350000    11.280001    24.160002
O     15.820000    13.670001    24.280003
O     17.760002    12.130001    24.110001
H     15.860001    11.560000    26.600000
O     21.860001    20.459999    14.770001
S     22.660000    21.590002    15.740002
O     23.030003    22.740002    14.870001
O     21.690002    21.870001    16.840002
O     23.830002    20.790001    16.200001
H     22.200001    20.500002    13.830000
O     10.300001    24.430000    19.010002
S     11.700001    23.980000    19.840000
O     11.170001    22.720001    20.420000
O     12.710000    23.900002    18.740002
O     11.990000    24.960001    20.920000
H     10.460000    24.830000    18.110001
O      8.010000    15.640001    22.410002
S      7.000000    16.470001    21.330002
O      6.450000    15.210000    20.740002
O      6.040000    17.170002    22.230000
O      7.870001    17.340000    20.490000
H      8.870000    16.140001    22.560001
O     10.650001    14.100000    23.500002
S     12.250000    13.540001    23.440001
O     12.910000    14.430000    24.430000
O     12.070000    12.170000    23.980000
O     12.680000    13.660001    22.020000
H     10.559999    14.950001    24.030001
O      8.300000    19.230001    10.970000
S      9.100000    20.630001    10.460000
O      8.640000    21.570000    11.520000
O     10.540000    20.300003    10.680000
O      8.840000    20.820000     9.010000
H      8.000000    18.600002    10.260000
O     17.040001    17.760002    19.020000
S     16.960001    18.380001    20.590000
O     17.820000    17.480000    21.400002
O     17.500002    19.760000    20.440002
O     15.490000    18.350000    20.840000
H     17.770000    17.090000    18.880001
O     13.730000    11.160001    21.930000
H     12.850000    11.420001    21.620003
H     13.750001    11.270000    22.900002
H     14.380001    11.730001    21.490002
O     17.590000    14.980000    22.670002
H     17.040001    14.400001    23.230001
H     17.060001    15.610001    22.139999
H     18.050001    14.330001    22.110003
O     22.410002    20.100000    18.800001
H     22.090000    20.440002    17.950001
H     22.860001    20.860003    19.230001
H     23.000002    19.330002    18.680000
