408
NATURAL 4H_P_A3D_c001_k1 t=6640.0 HSO=8 HHS=47 H3O=1
C     13.800001    16.510000    21.490002
C     15.040001    16.870001    21.809999
C     16.070002    16.650002    20.970001
O     17.300001    17.240002    21.140001
O     15.940001    15.780001    19.930002
H     13.460001    16.080000    20.559999
H     13.030001    16.790001    22.200001
H     15.220001    17.430000    22.720001
H     17.400002    17.580002    22.010002
H     16.820000    15.800000    19.570002
C     21.880001    18.620001    16.880001
C     20.520000    18.290001    16.270000
C     20.230000    18.760000    14.860001
N     19.280001    18.020000    13.950001
O     20.950001    19.780001    14.310001
N     19.530001    18.990000    17.090000
H     22.090000    19.680000    17.040001
H     22.730000    18.130001    16.410000
H     21.920002    18.130001    17.850000
H     20.459999    17.200001    16.350000
H     18.340000    17.980001    14.320001
H     19.650002    17.100000    13.750001
H     19.220001    18.440001    13.040000
H     21.760002    19.980001    14.750000
H     19.380001    19.970001    16.870001
H     19.850002    18.910000    18.040001
H     18.620001    18.550001    17.060001
O     45.779999    10.080000   -10.360001
S     46.900002    10.960001   -11.190001
O     46.380001    11.680001   -12.350000
O     47.990002    11.370001   -10.290001
O     47.820000     9.690001   -11.720000
H     45.650002    10.370001    -9.440001
H     47.910004     9.940001   -12.660000
O     48.950005    18.640001    -8.260000
S     48.070000    18.230001    -6.930000
O     47.650002    19.470001    -6.280000
O     46.930004    17.420002    -7.370000
O     48.870003    16.970001    -6.220000
H     48.590004    18.290001    -9.100000
H     49.389999    17.150000    -5.430000
O     45.200001    22.570002   -12.950001
S     44.550003    21.770000   -11.670000
O     45.570000    20.720001   -11.710000
O     44.610004    22.920000   -10.760001
O     43.060001    21.270000   -12.140001
H     46.049999    22.180002   -13.210001
H     42.500000    21.730001   -11.490001
O     19.200001    14.630001   -16.130001
S     20.650002    15.400001   -16.060001
O     21.720001    14.590001   -15.470000
O     20.980000    16.060001   -17.330000
O     20.340002    16.680000   -15.070001
H     19.370001    13.680000   -16.260000
H     20.860003    16.620001   -14.240000
O     20.760002    11.930000   -13.970001
S     22.090000    11.030001   -14.310001
O     22.090000    10.730000   -15.750000
O     23.310001    11.460000   -13.630000
O     21.880001     9.540001   -13.640001
H     20.850000    12.830001   -13.610001
H     22.760000     9.190001   -13.400001
O     42.000004    17.120001   -16.070002
S     43.100006    17.200001   -17.300001
O     44.430004    17.170002   -16.690001
O     42.610001    15.990001   -17.960001
O     42.740002    18.490002   -18.250000
H     42.480003    16.880001   -15.260000
H     43.460003    18.790001    16.930000
O     17.200001    17.250000   -11.410000
S     18.080002    15.850000   -11.340000
O     19.170000    16.520000   -12.060001
O     18.150002    15.220001   -10.020000
O     17.500002    15.000001   -12.620001
H     17.320002    17.670000   -10.530001
H     17.160000    14.150001   -12.300000
O     22.280003    11.360001    12.410001
S     22.530001    11.340000    14.040001
O     21.180000    10.890001    14.430000
O     23.850002    10.740000    14.240000
O     22.430000    12.970000    14.240000
H     23.000002    10.810001    12.040001
H     21.890001    13.220000    15.010000
O     19.600000    15.740002     9.860001
S     21.110001    15.110001     9.760000
O     21.230001    14.130001    10.840001
O     21.410000    14.720001     8.370000
O     22.220001    16.320002     9.850000
H     19.060001    15.460001     9.100000
H     22.750000    16.200001    10.660001
O     15.230001    23.450001   -18.400000
S     15.360001   -10.660001   -18.370001
O     14.920001   -10.130000    16.100002
O     14.820002   -10.390000   -17.040001
O     16.940001   -10.320001   -18.020000
H     15.020000    23.090000    16.480001
H     17.200001    -9.610001    17.120001
O     16.420000    18.220001    -7.240000
S     17.730001    19.150002    -7.640000
O     18.210001    18.540001    -8.880001
O     17.260000    20.520000    -7.440000
O     18.860001    18.960001    -6.450000
H     16.260000    17.410000    -7.760000
H     19.139999    19.890001    -6.430000
O     15.520000    20.660000    -9.770000
S     15.380001    20.540001   -11.400002
O     14.580001    19.320000   -11.370001
O     15.120001    21.830002   -12.060001
O     16.960001    20.110001   -11.590000
H     14.650001    20.710001    -9.340000
H     17.370001    20.660000   -12.290001
O     49.260002    22.460001    -8.470000
S     47.889999    22.000000    -9.270000
O     48.170006    20.730001    -9.940001
O     46.820000    22.110003    -8.280001
O     47.640003    23.150002   -10.430001
H     48.900002    22.770002    -7.620000
H     46.720005    23.410000   -10.590000
O     28.000002    21.110001    16.970001
S     28.780001    19.830000   -18.110001
O     28.100002    18.570002   -18.400000
O     30.200003    20.190001   -18.280001
O     28.460003    20.380001   -16.590000
H     27.200001    20.750000    16.540001
H     28.500002    19.560001   -16.060001
O     20.330000    20.990002    10.880001
S     20.090000    19.590000    10.050000
O     21.000002    19.340002     8.920000
O     19.980001    18.780001    11.270000
O     18.560001    19.450001     9.470000
H     21.170002    21.410000    10.610001
H     18.560001    19.700001     8.530001
O     21.000002    19.139999   -10.300001
S     20.930002    20.700001    -9.800000
O     20.459999    20.740002    -8.410000
O     22.270000    21.140001   -10.170001
O     19.910000    21.190002   -11.000000
H     21.160002    18.620001    -9.500000
H     19.250000    21.850002   -10.700001
O     44.780003    12.070000    15.650001
S     44.720001    13.710001    15.460001
O     45.580002    14.150001    16.560001
O     44.910004    13.940001    14.030001
O     43.110004    13.880000    15.790001
H     45.400005    11.680001    15.010000
H     42.990002    14.770001    16.180000
O     15.620001   -11.230000   -12.980001
S     17.240002   -11.190001   -13.280001
O     17.640001    23.330002   -12.600001
O     17.360001   -10.930000   -14.710001
O     17.600000    -9.900001   -12.310000
H     15.320001    23.610001   -12.810000
H     18.300001    -9.300001   -12.600001
O     23.820002   -11.770000    11.520000
S     22.270000    23.780001    12.040001
O     21.410000    23.560001    10.870000
O     22.290001    22.840002    13.160001
O     21.430000   -10.680000    12.630000
H     24.220001   -11.140001    12.140001
H     21.020000   -10.980000    13.460001
O     19.620001    12.850000    15.850000
S     19.160002    11.890000    17.110001
O     19.640001    12.280001   -17.320002
O     17.830002    11.320001    16.860001
O     19.750002    10.360001    17.040001
H     19.010002    13.600000    15.970001
H     20.330000    10.190001    16.280001
O     28.549999    13.670001    13.690001
S     27.299999    13.880000    14.750000
O     26.670000    15.060000    14.160000
O     26.730001    12.560000    15.010000
O     28.240002    14.240000    16.060001
H     28.590002    12.780001    13.310001
H     28.150002    15.160000    16.370001
O     17.300001    22.010002    11.370001
S     17.940001    22.090000    12.890000
O     18.270000    20.770000    13.450001
O     18.810001    23.270000    12.950001
O     16.540001    22.540001    13.620001
H     18.030001    22.060001    10.730000
H     16.250002    21.910002    14.300001
O     25.270002   -10.450001    16.620001
S     23.690002   -10.850000    16.860001
O     23.640001    23.850002   -17.880001
O     22.950001    -9.600000    17.030001
O     23.280001   -11.550001    15.430001
H     25.410002    -9.480000    16.600000
H     23.080002    23.280001    15.200001
O     16.130001    10.890001   -16.630001
S     17.150000    10.760001   -15.340000
O     17.600000    12.130001   -15.080000
O     16.300001    10.010000   -14.410001
O     18.410000     9.890000   -15.960001
H     16.390001    10.550001   -17.500002
H     19.260002    10.180000   -15.590000
O     20.330000    -9.360001    14.840001
S     19.040001    -8.400001    14.470000
O     18.000000    -8.990001    15.330001
O     19.500000    -7.020000    14.640001
O     18.680000    -8.820001    12.920000
H     21.030003    -8.890000    15.340000
H     17.850000    -9.330000    12.900001
O     48.279999    13.670001   -13.830000
S     49.700005    12.850000   -13.890000
O     15.060000    13.720001   -13.490001
O     49.510002    11.550001   -13.250000
O     14.190001    12.700001   -15.510001
H     48.000000    13.830000   -12.910000
H     14.410001    11.800001   -15.810001
O     16.950001    13.920001    13.700001
S     18.050001    14.060000    12.480000
O     17.380001    13.670001    11.230000
O     18.610001    15.370001    12.830001
O     19.210001    12.930001    12.760000
H     16.980001    14.830000    14.060000
H     20.120001    13.260001    12.600001
O     18.930000    15.880001    -7.140000
S     17.850000    14.690001    -6.760001
O     18.330000    13.330001    -7.010000
O     17.520000    15.090000    -5.400000
O     16.440001    15.080000    -7.520000
H     19.850002    15.640001    -7.340000
H     16.370001    14.370001    -8.190001
O     20.880001   -11.340000     7.510000
S     20.760002    22.770002     7.520000
O     22.000000    22.020000     7.770000
O     19.530001    22.650002     8.310000
O     20.170002    22.610001     5.990000
H     21.780003   -11.130000     7.830000
H     20.150002    21.709999     5.630000
O     42.820000    16.380001   -13.660001
S     42.750000    17.880001   -12.980001
O     42.889999    17.780001   -11.530000
O     43.630005    18.670002   -13.850001
O     41.200005    18.220001   -13.430000
H     43.430004    15.860001   -13.100000
H     41.200005    19.150002   -13.720001
O     15.640001    10.870000   -11.150000
S     16.710001    12.020000   -10.640000
O     15.980000    13.290001   -10.610001
O     17.270000    11.360001    -9.450001
O     17.680000    12.020000   -11.970000
H     14.820002    11.290001   -11.480000
H     18.620001    11.960001   -11.740000
O     48.260002    12.840000   -18.260000
S     49.290005    14.030001    17.010000
O     48.980003    14.230001    15.590000
O     49.340000    15.160000   -17.830002
O     14.890001    13.140000    16.690001
H     48.030006    12.990000   -17.330000
H     15.670000    13.670001    16.930000
O     24.680002    13.090000    16.630001
S     23.410000    13.160001   -18.090002
O     23.970001    13.250000   -16.730001
O     22.580002    14.230001    17.130001
O     22.550001    11.770000   -18.320002
H     25.459999    13.470001    17.060001
H     22.350002    11.440001   -17.430000
O     14.150001    22.980001   -15.510001
S     48.300003    23.020000   -15.900001
O     47.770004    22.820000   -14.540001
O     47.870003   -11.710000   -16.850000
O     48.100006    21.639999   -16.770000
H     14.630001    23.750000   -15.840001
H     47.590004    21.620003   -17.600000
O     25.700001    20.480001    11.010000
S     24.300001    19.670002    10.690001
O     24.560001    18.230001    10.750000
O     23.250000    20.310001    11.500001
O     23.980000    19.740002     9.080001
H     25.630001    20.960003    11.860001
H     23.710001    18.830002     8.850000
O     23.240002    21.390001   -16.700001
S     24.650002    20.600002   -16.390001
O     24.720001    19.540001   -17.410000
O     25.700001    21.610001   -16.410000
O     24.640003    19.850002   -14.920001
H     23.420000    22.350002   -16.740000
H     23.720001    20.050001   -14.680000
O     24.300001    16.160000   -16.060001
S     25.620001    16.400002   -17.020000
O     26.630001    17.170002   -16.290001
O     26.070002    15.200001   -17.730001
O     25.020000    17.070002   -18.400000
H     24.580002    16.430000   -15.170001
H     25.520000    17.900002   -18.340000
O     17.120001    22.200001   -16.370001
S     16.870001    20.610001   -16.040001
O     17.420002    19.760000   -17.100000
O     17.040001    20.370003   -14.600000
O     15.260000    20.290001   -16.260000
H     17.720001    22.350002   -17.130001
H     15.140000    19.720001   -17.040001
O     48.030006    19.690001   -13.660001
S     47.160000    19.370001   -15.030001
O     46.130005    20.410002   -14.950001
O     47.959999    18.990000   -16.200001
O     46.410004    17.980001   -14.550000
H     48.890003    20.130001   -13.800001
H     45.510002    18.340000   -14.540001
O     47.830002    17.330000    15.270000
S     46.690002    17.990002    16.270000
O     46.940002    19.420002    16.460001
O     45.380001    17.400002    15.980000
O     47.050003    17.090000   -18.160002
H     47.490002    16.830002    14.520000
H     47.490002    17.720001   -17.570002
O     22.260000    16.070002   -12.600001
S     23.840000    15.880001   -12.170000
O     24.150002    16.530001   -10.890001
O     24.330002    14.530001   -12.420001
O     24.700001    16.680000   -13.330001
H     21.660002    15.600000   -11.990000
H     25.520000    17.100000   -13.010001
O     46.320004    14.740001   -16.540001
S     45.389999    13.880000   -15.500001
O     45.380001    14.640001   -14.240000
O     44.240002    13.590001   -16.360001
O     46.020004    12.400000   -15.180001
H     45.960003    15.050001   -17.390001
H     46.040001    12.040001   -14.280001
O     19.580000    -9.670001   -16.930000
S     20.660000    -9.880000   -15.700001
O     20.160000    -9.070001   -14.580001
O     20.710001   -11.340000   -15.570001
O     22.230000    -9.500000   -16.020000
H     19.360001   -10.559999   -17.260000
H     22.330000    -9.010000   -16.860001
O     14.850000    17.080000    13.190001
S     15.630001    17.650002    11.850000
O     14.880000    18.620001    11.040001
O     17.020000    17.770000    12.300000
O     15.700001    16.290001    10.920000
H     14.970001    17.680000    13.950001
H     15.540000    16.530001     9.990001
O     21.970001    19.320000   -13.230000
S     20.770000    19.900002   -14.190001
O     21.150000    19.540001   -15.560001
O     19.650002    19.320000   -13.440001
O     20.770000    21.540001   -14.120001
H     21.560001    18.990000   -12.410001
H     20.700001    21.970001   -14.990001
O     23.280001    23.580000   -14.770001
S     23.430002   -11.760000   -13.180000
O     24.890001   -11.770000   -13.070001
O     22.360001   -10.830001   -12.800001
O     23.090000    22.500000   -12.550001
H     22.490002   -11.760000   -15.160000
H     22.550001    22.480001   -11.740000
O     49.440002    15.750000    -9.140000
S     48.250004    15.160000   -10.100000
O     49.130001    14.890001   -11.250000
O     47.360001    14.130001    -9.580001
O     47.470001    16.310001   -11.000000
H     49.350006    15.340000    -8.260000
H     46.520004    16.160000   -11.130000
O     44.669998    13.030001   -10.640000
S     43.890003    14.520000   -10.490000
O     44.220005    14.840001    -9.080001
O     44.640003    15.420000   -11.420001
O     42.460003    14.210001   -10.780001
H     45.120003    13.170000   -11.520000
O     23.640001    16.140001    14.870001
S     22.600000    16.180000    13.540001
O     22.600000    17.610001    13.140000
O     23.180000    15.320001    12.470001
O     21.240002    15.830001    14.040001
H     23.210001    15.970001    15.760001
O     19.220001    21.590002    16.460001
S     20.389999    22.520000    17.250000
O     19.900002   -11.840000    17.100000
O     20.330000    22.010002   -17.110001
O     21.570000    22.120001    16.430000
H     18.920000    22.160000    15.690001
O     16.100002    15.930000    16.030001
S     17.570002    15.740002    16.840002
O     18.660000    15.530001    15.840001
O     17.780001    16.920000   -18.040001
O     17.210001    14.480000   -18.210001
H     15.660001    16.730001    16.430000
O     20.910000    14.910001    -9.980000
S     21.010000    13.330001   -10.570001
O     22.420002    12.990000   -10.220001
O     20.110001    12.400000    -9.840000
O     20.590000    13.580000   -11.980000
H     19.920002    15.040001    -9.950001
O     14.870001    19.030001    16.850000
S     15.860001    19.610001    15.610001
O     17.140001    18.850000    15.510001
O     14.940001    19.440001    14.460001
O     16.010000    21.060001    15.930000
H     49.680004    19.130001    16.540001
O     17.130001    17.090000     8.450001
S     16.060001    17.470001     7.190001
O     16.940001    17.730001     6.020000
O     15.360001    16.150002     7.140000
O     15.250001    18.560001     7.800000
H     17.040001    17.810001     9.140000
O     24.990002    21.750002    16.200001
S     24.930000    20.760002    14.840001
O     25.910000    19.660000    15.070001
O     23.490002    20.389999    14.850000
O     25.300003    21.570000    13.650000
H     24.100000    21.780003    16.639999
O     25.620001    17.530001    13.250000
H     24.790001    17.150000    13.590001
H     26.140001    16.740000    13.010001
H     26.090002    18.000000    13.970001
