412
NATURAL 4H_P_A3L_c001_k0 t=5940.0 HSO=8 HHS=47 H3O=2
C     13.690001    16.140001    20.860003
C     14.770001    16.920000    21.049999
C     16.020000    16.440001    21.090002
O     17.110001    17.160000    21.510000
O     16.370001    15.170001    20.730001
H     13.730000    15.060000    20.840000
H     12.750001    16.660002    20.860003
H     14.570000    17.950001    21.310001
H     16.760002    18.010002    21.760002
H     17.240002    15.120001    21.080000
C     20.550001    16.510000    15.820000
C     21.150000    17.830002    16.310001
C     21.150000    18.900002    15.250001
N     22.280003    19.780001    14.790001
O     19.900002    19.130001    14.740001
N     20.480001    18.260000    17.550001
H     21.119999    16.260000    14.930000
H     20.900002    15.710001    16.470001
H     19.470001    16.390001    15.770000
H     22.180002    17.770000    16.670000
H     22.889999    19.180000    14.260001
H     22.080002    20.570002    14.190001
H     22.860001    20.110001    15.550001
H     19.750002    19.450001    13.870001
H     20.480001    17.570002    18.290001
H     20.930002    19.110001    17.860001
H     19.490002    18.420002    17.400002
O     49.080006    13.140000   -16.530001
S     49.020004    11.760000   -15.630001
O     49.599998    10.710001   -16.460001
O     49.580002    12.180000   -14.340000
O     47.380005    11.730001   -15.490000
H     49.440002    12.930001   -17.400002
H     46.959999    11.540001   -14.630001
O     44.050003    14.160000   -13.590001
S     44.869999    14.590001   -14.950001
O     46.150002    15.290001   -14.870001
O     44.510002    13.410001   -15.740002
O     44.120003    15.980000   -15.420000
H     44.470001    14.020000   -12.720001
H     43.610001    15.810001   -16.240002
O     25.250000    15.310000    15.120001
S     25.420000    16.930000    15.350000
O     24.090002    17.460001    15.020000
O     26.049999    17.250000    16.630001
O     26.060001    17.350002    13.890000
H     25.670002    14.880000    15.890001
H     26.930000    17.770000    14.070001
O     15.310000     9.580001    16.540001
S     15.380001    11.100000    15.910001
O     14.470000    11.930000    16.710001
O     16.820000    11.280001    15.740002
O     14.660001    10.730000    14.470000
H     15.150002     9.670001   -18.140001
H     14.970001    11.280001    13.730000
O     24.260002   -11.010000    14.520000
S     22.880001   -11.810001    14.120001
O     23.090000    22.690001    15.030001
O     21.750002   -10.900001    14.300001
O     22.920000   -11.930000    12.480000
H     24.640003   -11.360001    15.340000
H     22.770002    22.750000    12.420001
O     45.340004    18.530001    15.940001
S     46.340004    18.980001    14.710001
O     46.590004    20.420000    14.850000
O     47.530003    18.130001    14.680000
O     45.400005    18.660000    13.390001
H     45.270004    19.320000    16.490000
H     45.610004    19.210001    12.620001
O     18.280001    11.630001    12.430000
S     17.250000    12.910000    12.280001
O     16.010000    12.140001    12.410001
O     17.760002    13.950001    13.180000
O     17.490002    13.250000    10.690001
H     19.020000    11.740000    13.050001
H     17.680000    14.200001    10.660001
O     17.460001    13.930000   -11.760000
S     16.310001    12.780001   -11.490001
O     16.820000    11.720000   -10.610001
O     15.020000    13.480000   -11.460000
O     16.360001    12.040001   -12.960000
H     18.180000    13.820001   -11.120001
H     15.460001    11.970000   -13.330001
O     14.720001    16.750000    15.500001
S     15.360001    15.810001    16.690001
O     15.180001    16.650002   -17.760002
O     14.650001    14.540001    16.510000
O     16.960001    15.630001    16.370001
H     14.510001    17.650002    15.790001
H     17.360001    15.300001   -18.450001
O     47.160000    22.640001    16.680000
S     48.650002    22.710001    15.990001
O     49.630005    21.690002    16.380001
O     48.490005   -12.680000    14.560001
O     49.360004   -11.530000    16.520000
H     47.140003    21.880001   -18.340000
H     49.840004   -11.070000    15.810001
O     49.030003    19.530001   -16.120001
S     48.209999    19.210001   -17.510000
O     47.410004    20.440002   -17.510000
O     49.170002    18.830002   -18.550001
O     47.120003    18.030001   -17.120001
H     50.000000    19.530001   -16.250002
H     46.920006    17.370001   -17.810001
O     20.140001    15.890001    12.760000
S     18.920000    16.820000    12.160001
O     19.550001    18.140001    12.150001
O     18.090002    16.300001    11.070000
O     17.930000    17.210001    13.420000
H     20.360001    15.210000    12.100000
H     17.100000    16.690001    13.360001
O     46.530003    20.920000    -7.140000
S     46.380001    20.970001    -8.780001
O     46.570000    22.380001    -9.130000
O     47.070004    19.880001    -9.480000
O     44.869999    20.360001    -9.020000
H     47.420002    20.540001    -7.030000
H     44.310001    21.060001    -9.410001
O     15.620001    19.630001    14.870001
S     15.390000    20.459999    13.470001
O     15.910001    21.830002    13.510000
O     16.010000    19.520000    12.530001
O     49.400002    20.550001    13.220000
H     15.740002    20.250000    15.610001
H     49.200001    21.350000    12.710000
O     24.570000    11.350001    16.880001
S     24.860001    11.020000    15.290001
O     24.530001     9.600000    15.120001
O     24.180002    12.130001    14.610001
O     26.490002    11.060000    15.060000
H     24.020002    10.650001   -18.370001
H     26.730001    11.920000    14.670001
O     42.280003    18.630001   -15.740002
S     43.450005    19.710001   -16.140001
O     43.880001    19.200001   -17.440001
O     43.370003    21.180000   -16.180000
O     44.760002    19.200001   -15.280001
H     41.430000    19.100000   -15.670000
H     45.310001    19.930002   -14.950001
O     18.960001    11.910001   -17.530001
S     17.810001    11.630001   -16.380001
O     18.500002    11.660000   -15.090000
O     16.550001    12.220000   -16.840002
O     17.760002    10.050000   -16.860001
H     19.760000    12.360001   -17.200001
H     17.760002     9.490001   -16.070002
O     27.810001    20.950001   -16.240002
S     27.360001    19.580000   -17.040001
O     28.690002    19.100000   -17.430000
O     26.350002    18.980001   -16.170002
O     26.660002    20.010002   -18.480000
H     28.000002    20.580002   -15.370001
H     25.860003    19.470001    17.060001
O     19.520000    15.920001   -12.240001
S     20.700001    17.060001   -12.090001
O     21.670000    17.020000   -13.190001
O     19.840000    18.250000   -11.960001
O     21.500000    16.830002   -10.670000
H     19.430000    15.650001   -13.170000
H     21.400002    17.660000   -10.180000
O     26.049999   -12.320002   -16.790001
S     26.810001   -11.410000   -17.930000
O     26.080000   -11.320001    16.440001
O     27.480001   -10.230000   -17.370001
O     28.010002   -12.430000   -18.410000
H     25.100002   -12.220000   -16.970001
H     28.740002   -11.980000    16.760002
O     45.360001    15.080000    16.830002
S     46.889999    14.760000    16.330002
O     47.000004    14.810000    14.870001
O     47.540001    15.560001   -18.270000
O     47.260002    13.230000    16.840002
H     44.650002    15.280001    16.190001
H     47.580002    12.620001    16.150002
O     48.870003    16.590000    12.960000
S     49.900002    15.350000    12.650002
O     15.640001    15.790001    12.400000
O     49.529999    14.210001    13.490001
O     49.110001    14.970001    11.250000
H     48.510002    16.580002    13.870001
H     49.540005    14.720001    10.410000
O     14.850000   -11.690001   -16.380001
S     49.139999   -11.380000   -15.480001
O     48.900002    -9.960001   -15.220001
O     48.170006   -12.430000   -15.780001
O     49.650002   -11.690001   -13.950001
H     14.690001   -11.520000   -17.320002
H     49.090004   -12.290001   -13.420000
O     43.720001    17.650002   -12.860001
S     44.320000    17.640001   -11.320001
O     45.770000    17.850000   -11.420001
O     43.300003    18.610001   -10.900001
O     44.050003    16.290001   -10.420000
H     44.180000    17.650002   -13.710001
H     44.880005    15.900001   -10.090000
O     20.340002    11.760000   -13.250000
S     20.710001    10.220001   -12.800001
O     20.340002     9.080001   -13.650000
O     22.050001    10.370001   -12.230000
O     19.890001    10.110001   -11.380000
H     19.900002    12.000000   -14.090000
H     19.090000     9.560000   -11.460000
O     28.870001    18.240002     8.950001
S     28.040001    18.930000    10.190001
O     26.820002    19.290001     9.460000
O     28.050001    18.170000    11.440001
O     29.050003    20.160000    10.620001
H     29.230001    17.330000     8.980000
H     28.820002    20.980000    10.140000
O     23.760002    21.320002    10.390000
S     23.720001    22.480001     9.210001
O     25.030001   -12.530001     9.370001
O     23.310001    21.830002     7.960001
O     22.400000   -12.210001     9.480000
H     23.720001    20.420000    10.020000
H     22.720001   -11.290001     9.480000
O     48.590004     8.090000   -13.650000
S     48.860001     8.530001   -12.090001
O     47.650002     9.010000   -11.410000
O     49.470001     7.230000   -11.780001
O     49.900002     9.810000   -12.040001
H     47.620003     8.110001   -13.750001
H     49.750004    10.430001   -11.300000
O     17.010000   -11.760000    16.890001
S     18.170000   -11.550001    15.750000
O     19.420002   -12.320002    15.730000
O     17.520000   -11.430000    14.440001
O     18.860001   -10.090000    16.100002
H     17.100000    22.940002   -18.510000
H     18.860001    -9.530001    15.300001
O     25.130001    14.870001    11.200000
S     26.150000    13.570002    11.130000
O     26.490002    12.970000    12.420001
O     25.680000    12.750001    10.010000
O     27.520000    14.150001    10.430001
H     24.310001    14.600000    10.760001
H     27.640001    13.660001     9.600000
O     16.850000    21.760002   -14.520000
S     15.830001    21.030003   -13.450001
O     14.630001    21.040001   -14.300001
O     16.590000    19.810001   -13.190001
O     15.640001    21.850002   -12.040001
H     16.430000    21.720001   -15.400001
H     16.049999    21.380001   -11.290001
O     22.270000     8.290001   -15.820000
S     21.860001     9.640000   -16.680000
O     21.680002    10.860001   -15.900001
O     22.970001     9.670001   -17.650002
O     20.530003     9.140000   -17.530001
H     22.330000     8.710001   -14.950001
H     20.910000     9.120001   -18.430000
O     18.050001    15.620001    -8.150001
S     17.230000    14.910001    -6.920000
O     17.910002    14.740001    -5.630000
O     15.860001    15.390000    -7.130001
O     16.720001    13.470001    -7.540000
H     18.920000    15.930000    -7.840000
H     17.440001    12.940001    -7.940001
O     15.480001     7.620000   -16.220001
S     16.190001     7.250000   -14.780001
O     15.550001     6.220000   -13.950001
O     17.550001     7.310000   -15.320001
O     16.130001     8.760000   -14.120001
H     14.710001     7.030000   -16.230000
H     16.480001     8.820001   -13.210001
O     47.860001    19.810001   -12.470001
S     46.950001    21.140001   -12.830001
O     45.620003    21.160002   -12.230000
O     47.840004    22.290001   -12.650002
O     46.700001    20.940001   -14.440001
H     47.600002    19.370001   -11.640000
H     47.340004    21.460001   -14.950001
O     21.990002    13.830000    14.830000
S     20.970001    12.580000    15.160000
O     20.350000    11.980000    13.980001
O     21.370001    11.880001    16.390001
O     19.610001    13.390001    15.620001
H     22.889999    13.600000    15.120001
H     19.290001    13.180000    16.520000
O     21.590002    16.420000     7.750000
S     19.960001    16.590000     7.790000
O     20.000000    17.420002     8.990001
O     19.340002    16.960001     6.510000
O     19.420002    15.150002     8.360001
H     21.970001    17.010000     7.070000
H     18.550001    14.870001     8.020000
O     20.910000    22.090000   -14.770001
S     21.020000    20.950001   -13.580000
O     21.940001    19.960001   -14.160000
O     21.119999    21.880001   -12.460001
O     19.520000    20.280001   -13.670001
H     20.620001   -12.650002   -14.540001
H     19.020000    20.620001   -12.900001
O     24.760000    18.100000    11.330000
S     23.170002    17.680000    11.490001
O     22.889999    16.260000    11.250000
O     22.730000    18.240002    12.770000
O     22.530001    18.540001    10.250001
H     25.310001    17.300001    11.450001
H     21.740000    18.140001     9.840000
O     48.670002    17.260000   -11.130000
S     14.490002    17.310001   -10.380001
O     14.440001    16.220001    -9.400001
O     15.300001    17.640001   -11.550001
O     49.970001    18.560001    -9.320001
H     48.510002    16.330002   -11.360001
H     15.210000    18.980001    -9.270000
O     20.370003    13.150001   -10.440001
S     20.510002    12.530001    -8.920000
O     21.310001    11.300000    -8.950001
O     20.960003    13.680000    -8.140000
O     19.030001    12.060001    -8.370000
H     21.010000    12.790001   -11.070000
H     19.240002    11.390000    -7.690001
O     30.260002    18.680000    13.030001
S     30.040001    18.390001    14.640001
O     30.540001    19.540001    15.410002
O     28.680000    17.850000    14.670001
O     31.320002    17.390001    14.960001
H     29.410002    18.540001    12.580000
H     30.950001    16.510000    15.160000
O     22.650002    12.900001    11.850000
S     21.680002    12.930001    10.520000
O     21.470001    11.520000    10.200001
O     20.580002    13.780001    10.980000
O     22.710001    13.780001     9.560000
H     22.889999    11.970000    12.020000
H     22.480001    13.620001     8.640000
O     22.280003    14.280001   -13.420000
S     23.790001    14.450001   -12.790001
O     24.360001    13.290001   -13.480000
O     24.350002    15.800000   -12.910000
O     23.510000    14.170000   -11.190001
H     22.220001    14.070001   -14.370001
H     23.770000    14.880000   -10.590000
O     21.190002   -11.710000   -17.700001
S     22.460001   -10.690001   -17.470001
O     23.650000   -11.450001   -17.880001
O     22.050001    -9.330000   -17.830002
O     22.550001   -10.270000   -15.880001
H     20.590000   -11.320001   -18.360001
H     22.330000    -9.330000   -15.800000
O     25.890003    21.590002    14.930000
S     25.940001    21.130001    13.350000
O     27.190001    20.380001    13.170000
O     24.690001    20.370003    13.300000
O     25.750000    22.420002    12.340001
H     26.670000    21.550003    15.510001
H     26.410000    22.730000    11.700001
O     18.080002    20.370003     8.000000
S     16.930000    20.340002     9.180000
O     17.290001    21.270000    10.240001
O     15.730000    20.500002     8.340000
O     16.910002    18.780001     9.710001
H     18.680000    21.130001     8.100000
H     16.170002    18.460001    10.250001
O     43.730003    10.440001   -14.390000
S     45.080002     9.940001   -13.510000
O     45.930004     9.050000   -14.350000
O     45.580002    11.270000   -13.070001
O     44.330002     9.200000   -12.460001
H     43.780003    11.410000   -14.620000
O     18.550001    19.650002   -16.240002
S     17.440001    19.890001   -17.490002
O     16.150002    19.810001   -16.740000
O     17.570002    21.160002   -18.250000
O     17.790001    18.770000   -18.410000
H     18.720001    20.510002   -15.760001
O     23.580000    13.460001   -16.310001
S     24.250002    14.780001   -17.130001
O     25.690001    14.470000   -17.300001
O     23.380001    14.740001   -18.340000
O     24.050003    15.840001   -16.100002
H     22.640001    13.340001   -16.600000
O     21.610001    20.820000   -17.750000
S     23.220001    20.420000   -17.430000
O     22.970001    19.040001   -16.910002
O     23.890001    20.380001    16.870001
O     23.950003    21.250000   -16.440001
H     21.350000    21.720001   -17.380001
O     20.750000    16.310001   -16.350000
S     19.770000    14.930000   -16.230000
O     20.700001    13.810000   -16.530001
O     19.160002    14.920001   -14.880000
O     18.780001    15.170001   -17.320002
H     21.680002    15.930000   -16.400002
O     19.180000    19.290001    -9.370001
S     18.180000    20.580002    -9.780001
O     18.660000    21.260002   -11.020000
O     16.760002    20.130001    -9.900001
O     18.400000    21.490002    -8.620001
H     19.580000    18.990000   -10.240001
O     20.320000    20.559999    10.510000
S     20.260000    21.500000    11.910001
O     21.600000    21.270000    12.530001
O     19.980001    22.910002    11.540001
O     19.190002    21.020000    12.830001
H     19.980001    19.650002    10.760001
O     47.610001    12.860001   -10.670000
S     46.840000    14.320001   -11.000000
O     47.270004    15.110001    -9.810000
O     47.530003    14.730000   -12.260000
O     45.400005    13.930000   -11.080000
H     48.200001    12.780001   -11.480000
O     17.160000   -12.070000    11.940001
H     16.450001   -11.950001    11.290001
H     17.780001    22.870003    11.650001
H     16.890001   -12.270001    12.850000
O     24.390001    18.210001   -14.390000
H     24.860001    17.980001   -15.220001
H     24.230001    17.430000   -13.830000
H     23.560001    18.670002   -14.620000
