350
NATURAL 4H_R_4H_HSO_rich_k0 t=2680.0 HSO=8 HHS=37 H3O=4
N     18.860001    18.400000    25.720001
C     19.060001    17.180000    24.920002
C     17.730001    16.420000    24.890001
C     19.780001    17.220001    23.590002
O     20.330000    16.049999    23.130001
N     20.190001    18.390001    22.840002
C     20.810001    18.200001    21.520002
C     19.830000    17.640001    20.480001
C     21.410000    19.510000    21.070002
O     20.580002    20.570002    20.860003
O     22.700003    19.860001    20.750000
H     18.200001    18.210001    26.460001
H     19.680000    18.820002    26.130001
H     19.730000    16.639999    25.580002
H     19.390001    18.990000    22.680000
H     21.680002    17.560001    21.610001
H     23.360003    19.210001    20.940001
H     16.930000    16.990002    24.430000
H     17.410000    16.220001    25.920000
H     17.900002    15.490000    24.340000
H     18.960001    18.190001    20.130001
H     19.420002    16.660002    20.720001
H     20.470001    17.550001    19.600000
H     18.520000    19.180000    25.180000
H     20.310001    15.220001    23.580000
H     21.119999    21.280001    20.530003
H     20.870001    18.910000    23.370001
O     19.360001    12.850000    18.660000
S     18.990000    12.690001    20.250000
O     19.820002    11.780001    21.040001
O     18.890001    14.030001    20.820000
O     17.460001    12.070000    20.280001
H     20.180000    12.340001    18.520000
H     16.910002    12.280001    19.500000
O     18.070000    25.970001    20.380001
S     18.480000    24.390001    20.220001
O     18.910000    23.970001    18.870001
O     19.260002    24.100000    21.420002
O     17.030001    23.720001    20.600002
H     18.520000    26.450003    19.670002
H     16.780001    22.889999    20.150002
O     22.690001    24.360001    27.570002
S     24.150002    23.660002    27.270002
O     23.750000    22.250002    27.190001
O     24.750002    24.530001    26.260002
O     25.000000    24.000000    28.640001
H     22.440002    24.970001    26.860001
H     25.450001    23.160002    28.860001
O     14.810000    18.090002    28.549999
S     16.360001    18.430000    29.020002
O     16.570000    17.650002    30.240002
O     17.240002    18.240002    27.870003
O     16.190001    20.010002    29.440002
H     14.640001    17.240002    28.980003
H     16.990002    20.430000    29.080002
O     24.040001    14.270000    26.250002
S     23.780001    15.780001    25.640001
O     22.450001    15.890001    25.050001
O     24.130001    16.470001    26.880001
O     24.980001    16.080000    24.540003
H     23.150002    13.890000    26.260002
H     24.530001    16.500000    23.790001
O     16.380001    23.540001    16.570000
S     16.130001    24.610003    15.330001
O     16.120001    23.580000    14.290000
O     15.230001    25.760002    15.480001
O     17.720001    24.950001    15.120001
H     15.870001    23.710001    17.380001
H     18.050001    25.840000    15.360001
O     20.090000    17.630001    30.340002
S     20.980000    17.250000    29.010000
O     19.900002    16.990002    28.060001
O     22.000000    18.230001    28.630001
O     21.770000    15.810001    29.120003
H     20.240002    18.540001    30.640001
H     21.260002    15.170001    28.610001
O     29.790001    23.260002    18.310001
S     28.780001    23.730001    19.520000
O     28.680000    25.180000    19.680000
O     27.490002    23.030003    19.370001
O     29.470001    23.270000    20.950001
H     30.260002    23.930000    17.790001
H     28.950003    22.580002    21.400002
O     18.630001    22.020000    14.130001
S     19.340002    21.430000    15.500001
O     20.400002    22.440002    15.440001
O     18.320002    21.190002    16.530001
O     20.320000    20.160000    15.170001
H     17.680000    22.220001    14.200001
H     20.180000    19.410002    15.780001
O     22.930002    24.250002    23.970001
S     21.430000    24.910002    23.940001
O     21.220001    25.290001    25.340002
O     21.270000    25.800001    22.780001
O     20.490000    23.590002    23.640001
H     23.440001    24.780003    23.340000
H     19.910000    23.780001    22.880001
O     25.920000    22.130001    24.010000
S     26.040001    21.930000    22.369999
O     27.470001    21.760002    22.150002
O     25.170002    20.830002    21.940001
O     25.600002    23.390003    21.760002
H     25.280001    21.470001    24.350002
H     25.010002    23.370001    20.980000
O     23.310001     9.730000    24.450001
S     24.730000     9.730000    23.600002
O     26.020002     9.530001    24.260002
O     24.420002     8.880001    22.450001
O     24.750002    11.270000    23.020000
H     23.610001     9.410001    25.310001
H     25.610001    11.680001    23.200001
O     30.350000    18.280001    20.480001
S     29.800003    19.010002    19.110001
O     29.120003    18.180000    18.110001
O     29.060001    20.100000    19.760000
O     31.060001    19.970001    18.680000
H     30.380001    17.320002    20.370003
H     31.230001    19.980001    17.720001
O     12.870001    15.010000    21.520002
S     12.640000    14.800000    23.140001
O     11.660000    13.750001    23.400002
O     13.760000    14.780001    24.080002
O     11.680001    16.030001    23.670002
H     13.800001    15.280001    21.450003
H     12.140001    16.230000    24.500000
O     22.780001    10.820000    21.000002
S     22.340002     9.710001    19.870001
O     21.780003    10.510000    18.780001
O     23.420000     8.760000    19.580000
O     21.080000     8.920000    20.580002
H     23.670002    10.690001    21.380001
H     20.230000     9.030001    20.120001
O     16.660002    13.550000    23.250000
S     15.900001    12.100000    23.370001
O     14.680000    12.270001    22.580002
O     16.900002    11.050000    23.120001
O     15.330001    12.000000    24.920002
H     16.340000    14.210001    22.620001
H     15.520000    11.080000    25.190001
O     15.710001    19.170000    18.790001
S     15.250001    20.620001    19.440001
O     14.400001    20.410002    20.610001
O     16.350000    21.580000    19.470001
O     14.140000    21.030003    18.290001
H     15.660001    18.380001    19.360001
H     14.110001    21.960001    18.020000
O     15.390000    23.059999    26.930000
S     13.800001    22.650002    26.980001
O     12.960000    23.140001    28.070002
O     13.500000    22.780001    25.550001
O     14.010000    21.020000    27.150002
H     15.550001    23.680000    27.660000
H     13.370000    20.660000    27.780001
O     10.180000    17.020000    27.030001
S     11.670000    17.570002    27.470001
O     12.630000    16.560001    27.030001
O     12.040001    18.980001    27.260000
O     11.700001    17.300001    29.100000
H      9.710001    17.680000    26.490002
H     11.950001    18.030001    29.690001
O     13.540001    12.870001    18.670002
S     14.680000    13.290001    17.560001
O     16.030001    13.120001    18.100000
O     14.580001    12.880001    16.150002
O     14.240000    14.820002    17.950001
H     13.160001    12.020000    18.390001
H     14.080001    15.370001    17.170002
O     12.480000    18.550001    21.980001
S     13.040000    19.110001    23.420000
O     13.720001    17.930000    23.960001
O     13.520001    20.500002    23.490002
O     11.710000    19.120001    24.400002
H     13.280001    18.600002    21.410000
H     11.450001    19.970001    24.790001
O     26.840000    17.840000    19.730000
S     26.240002    17.390001    21.190002
O     24.910002    17.990002    21.260002
O     26.530001    16.000000    21.580000
O     27.170002    18.310001    22.190001
H     27.070000    17.020000    19.270000
H     26.830002    19.130001    22.580002
O     27.040003    16.710001    16.320002
S     27.690001    15.400001    17.080000
O     29.130001    15.170001    16.960001
O     27.060001    15.430001    18.400000
O     27.070000    14.030001    16.410000
H     27.520000    17.540001    16.150002
H     27.690001    13.300000    16.230000
O     27.970001    19.710001    24.630001
S     27.790001    19.560001    26.260002
O     29.090002    19.620001    26.920002
O     26.790001    20.620001    26.450003
O     26.840000    18.230001    26.460001
H     28.790001    20.000000    24.209999
H     27.330000    17.570002    26.980001
O     24.440001    21.809999    15.000001
S     24.550001    23.180000    15.900001
O     23.160002    23.450001    16.270000
O     25.520000    22.840002    16.960001
O     25.230000    24.260002    14.860001
H     24.790001    21.010000    15.430001
H     25.160000    25.020000    15.460001
O     23.640001    15.030001    17.520000
S     22.830000    13.870001    16.680000
O     22.010002    13.370000    17.790001
O     22.150002    14.310001    15.450001
O     24.060001    12.920000    16.130001
H     23.440001    15.960001    17.290001
H     23.980000    12.540001    15.240001
O     28.000002    11.660000    23.200001
S     27.720001    13.160001    23.840000
O     26.990002    12.840000    25.070002
O     28.990002    13.880000    23.800001
O     26.540001    13.640001    22.790001
H     28.930000    11.380000    23.240002
H     26.800001    14.460001    22.330000
O     18.350000    22.050001    31.110001
S     18.480000    20.810001    32.190002
O     19.160002    19.890001    31.280003
O     19.120001    21.119999    33.470001
O     17.000000    20.140001    32.500004
H     18.890001    22.780001    31.460001
H     16.990002    19.190002    32.290001
O     20.190001    13.640001    31.150002
S     18.550001    13.580000    31.100002
O     18.170000    12.180000    30.850000
O     17.950001    14.180001    32.290001
O     18.040001    14.450001    29.800003
H     20.590000    13.340001    31.990002
H     17.130001    14.720001    29.640003
O     20.780001    22.350002    28.600002
S     19.840000    21.780003    27.360001
O     20.380001    22.170000    26.049999
O     19.680000    20.360001    27.650002
O     18.300001    22.280003    27.650002
H     21.490002    22.950001    28.310001
H     17.980001    22.880001    26.950001
O     19.750002    15.690001    15.390000
S     19.300001    16.220001    16.880001
O     20.230000    15.750000    17.920000
O     19.370001    17.580002    16.340000
O     17.870001    15.480001    17.200001
H     20.580002    15.160000    15.380001
H     17.340000    15.960001    17.860001
O     15.270000    15.300001    26.620003
S     14.870001    14.220000    27.800003
O     15.090000    15.230001    28.850002
O     13.570002    13.610001    27.500002
O     16.210001    13.270000    27.870003
H     14.490002    15.690001    26.190002
H     15.880001    12.350000    27.840002
O     24.350002    26.530001    22.590000
S     24.230001    27.010002    21.020000
O     22.860001    27.460001    20.770000
O     25.360001    27.889999    20.700001
O     24.640003    25.720001    20.090000
H     24.790001    27.170002    23.180000
H     23.900002    25.450001    19.520000
O     17.800001    23.760002    25.420000
S     17.560001    25.389999    25.370003
O     17.440001    25.580002    26.820002
O     18.570002    26.010000    24.500000
O     16.040001    25.590000    24.780003
H     18.460001    23.570002    24.740002
H     16.020000    26.170002    24.000000
O     14.650001    18.780001    14.030001
S     15.920001    18.760000    15.070001
O     15.880001    17.590000    15.950001
O     17.110001    19.100000    14.280001
O     15.690001    20.090000    16.010000
H     14.210001    17.910002    14.000001
H     16.030001    19.720001    16.850000
O     23.960001    21.400002    32.410004
S     22.730000    21.010000    31.390001
O     23.170002    21.270000    30.020000
O     21.870001    19.870001    31.730001
O     21.730001    22.250002    31.770000
H     24.400002    20.660000    32.870003
H     21.639999    22.840002    31.000002
O     21.960001    14.970001    20.100000
S     23.030003    14.460001    21.240002
O     24.240000    13.870001    20.660000
O     23.180000    15.730000    21.960001
O     22.390001    13.640001    22.530001
H     22.230000    15.090000    19.170000
H     22.670002    12.710000    22.480001
O     28.220001    21.380001    16.510000
S     27.610001    20.450001    15.250001
O     26.360001    19.920002    15.860001
O     27.370003    21.400002    14.120001
O     28.640001    19.430000    14.950001
H     29.200001    21.210001    16.660002
O     15.660001    14.680000    20.830002
S     16.150002    16.300001    20.740002
O     17.090000    16.280001    21.900002
O     16.810001    16.580002    19.430000
O     14.940001    17.120001    21.049999
H     15.480001    14.370001    19.900002
O     21.750002    20.400002    23.810001
S     22.620001    19.320000    24.780003
O     23.910000    19.940001    25.200003
O     21.720001    18.920000    25.890003
O     22.710001    18.300001    23.700001
H     21.980001    21.340000    24.060001
O     15.920001     8.330001    27.570002
S     16.470001     9.900001    27.299999
O     15.210000    10.700001    27.430000
O     17.360001     9.870001    28.490002
O     17.230000    10.140000    26.040001
H     16.030001     7.650001    26.850002
O     21.390001    19.310001    17.810001
S     22.870003    18.500002    17.880001
O     23.800001    19.640001    18.140001
O     22.860001    17.640001    19.100000
O     23.190001    17.770000    16.620001
H     21.560001    20.290001    17.900002
O     22.290001    23.030003    21.080000
S     22.710001    22.950001    19.440001
O     21.520002    22.190001    18.950001
O     22.510002    24.360001    18.990000
O     24.050003    22.299999    19.480001
H     21.750002    23.860001    21.180000
O     18.970001    14.130001    26.900002
S     20.180000    13.380001    25.980000
O     19.880001    11.930000    26.110001
O     20.110001    13.900002    24.590000
O     21.390001    13.720001    26.780003
H     18.510000    13.520001    27.540001
O     16.460001    19.690001    24.260002
S     17.510000    20.570002    23.270000
O     18.620001    20.770000    24.250002
O     17.830002    19.490002    22.290001
O     16.670000    21.670000    22.730000
H     15.650001    20.250000    24.400002
O     20.830002    24.640003    16.820000
H     21.260002    25.290001    16.240002
H     21.250000    24.640003    17.700001
H     20.720001    23.780001    16.380001
O     24.370001    19.330002    27.790001
H     24.250002    19.940001    27.040003
H     23.480000    19.139999    28.120001
H     24.710003    18.510000    27.400002
O     26.510000    20.590000    18.570002
H     27.060001    20.280001    17.830002
H     26.710003    21.530001    18.680000
H     25.660002    20.559999    18.090002
O     19.390001    10.190001    24.050003
H     18.420002    10.200001    23.940001
H     19.680000    10.840001    24.720001
H     19.620001     9.280001    24.300001
