350
NATURAL 4H_R_4H_S_k1 t=3820.0 HSO=7 HHS=39 H3O=2
N      7.780001    19.890001    24.940002
C      8.720000    20.980000    25.270002
C      9.460000    20.760002    26.590002
C      9.780001    21.200001    24.209999
O     10.230000    22.490002    24.180002
N     10.200001    20.370003    23.110001
C     11.030001    20.940001    22.040001
C     12.520000    21.140001    22.299999
C     10.910001    20.130001    20.770000
O     10.480001    18.840000    20.900002
O     11.120001    20.580002    19.500000
H      7.000000    19.770000    25.580002
H      7.360001    19.980001    24.030001
H      8.090000    21.860001    25.400002
H     10.670000    19.540001    23.440001
H     10.590000    21.910002    21.770000
H     11.060000    21.520002    19.410002
H     10.240001    21.490002    26.770000
H      9.870001    19.750002    26.680002
H      8.740000    20.840000    27.410002
H     13.080001    21.400002    21.400002
H     12.900001    20.150002    22.560001
H     12.730000    21.950001    23.000002
H      8.220000    18.980001    24.880001
H      9.740001    23.070002    24.740002
H     10.490000    18.290001    20.130001
H      9.430000    19.930002    22.610001
O     10.070001    27.710001    22.850000
S      8.570001    28.070002    22.280003
O      8.280001    27.240002    21.100002
O      7.710000    27.910002    23.460003
O      8.530001    29.690001    22.000000
H     10.060000    27.210003    23.680000
H      8.090000    29.650002    21.130001
O     14.160000    14.870001    18.090002
S     14.560001    15.570001    16.660002
O     14.030001    14.640001    15.650001
O     13.920001    16.850000    16.920000
O     16.180000    15.860001    16.600000
H     13.780001    14.000001    17.880001
H     16.700001    15.600000    15.810001
O     19.210001    26.180000    24.320002
S     17.800001    25.389999    24.630001
O     17.260000    24.660000    23.480000
O     17.940001    24.670000    25.900002
O     16.780001    26.680002    24.700001
H     19.820002    26.230001    25.080002
H     16.520000    26.690002    25.640001
O      7.450001    22.690001    18.030001
S      6.450000    21.630001    17.250000
O      6.130000    21.890001    15.850000
O      7.090001    20.370003    17.630001
O      5.070000    21.840000    18.120001
H      8.010000    23.120001    17.360001
H      4.320000    21.820002    17.500002
O     15.700001    20.900002    20.850000
S     16.230000    21.290001    22.360001
O     15.760001    20.220001    23.260002
O     17.660000    21.390001    22.040001
O     15.540000    22.750000    22.680000
H     16.420000    20.530003    20.320000
H     16.160000    23.490002    22.780001
O      5.130000    26.610001    16.580002
S      6.700000    26.390001    17.010000
O      7.410001    27.580002    16.530001
O      6.700000    25.920000    18.390001
O      7.150001    25.150002    16.030001
H      4.840000    27.520000    16.420000
H      8.000000    25.360001    15.610001
O     11.530000    24.130001    16.240002
S     10.570001    22.790001    16.160000
O     11.200000    21.809999    17.050001
O      9.240000    23.420000    16.250002
O     10.790000    22.200001    14.640001
H     11.060000    24.930000    16.500000
H     10.010000    22.020000    14.090000
O     13.270000    20.130001    14.680000
S     14.530001    20.430000    15.700001
O     15.110001    21.660002    15.150002
O     14.240000    20.160000    17.120001
O     15.600000    19.270000    15.250001
H     12.470001    19.790001    15.120001
H     15.880001    18.820002    16.060001
O      9.530001    12.920000    18.200001
S      9.840000    14.340000    18.970001
O      9.770000    15.420000    17.980001
O      9.250001    14.350000    20.310001
O     11.430000    14.120001    19.330002
H      9.180000    13.150001    17.320002
H     11.720000    14.290000    20.240002
O      7.550001    16.630001    28.960001
S      8.030001    16.930000    27.410002
O      7.810000    15.670000    26.690002
O      7.540000    18.280001    27.130001
O      9.650001    17.190001    27.610001
H      6.780000    16.049999    29.060001
H     10.160000    16.460001    27.230000
O     10.500001    13.180000    24.900000
S      9.170000    12.700001    24.060001
O      8.340000    13.900002    24.120003
O      9.650001    12.080001    22.810001
O      8.540000    11.480000    24.970001
H     10.380001    14.140000    25.010002
H      7.720000    11.730001    25.440002
O     13.840000    28.400002    23.720001
S     14.000001    28.010002    22.130001
O     13.170000    28.980003    21.420002
O     15.400001    27.620001    21.880001
O     13.100000    26.630001    22.240002
H     14.710001    28.410000    24.160002
H     12.430000    26.370001    21.580000
O     17.540001    23.780001    20.100000
S     19.070000    24.010000    19.560001
O     19.880001    23.270000    20.530003
O     19.040001    23.970001    18.090002
O     19.860001    25.360001    20.080002
H     17.230000    22.950001    19.680000
H     20.170002    25.910000    19.340002
O     13.430000    16.270000    26.610001
S     13.490001    14.990001    27.650002
O     12.390001    15.220001    28.580000
O     13.430000    14.020000    26.550003
O     14.920001    15.230001    28.440001
H     13.040000    15.920001    25.790003
H     14.870001    14.830000    29.320002
O     14.590001    24.030001    25.520000
S     12.970000    24.340000    25.400002
O     12.550001    24.120003    24.010000
O     12.350000    23.420000    26.350002
O     12.850000    25.880001    25.970001
H     14.870001    23.470001    26.260002
H     12.440001    26.440001    25.270002
O      7.690001    23.800001    11.570001
S      7.120000    22.520000    12.430000
O      6.810000    21.430000    11.490001
O      8.210000    22.369999    13.400001
O      5.690000    22.620001    13.240002
H      7.830000    23.640001    10.620001
H      5.900001    22.500000    14.180001
O     14.370001    18.140001    21.900002
S     14.100000    17.690001    20.340002
O     15.290001    17.150000    19.680000
O     12.800001    17.020000    20.420000
O     13.630000    19.010002    19.470001
H     15.060000    17.610001    22.310001
H     14.100000    19.220001    18.640001
O      5.390000    14.920001    31.760002
S      4.340000    15.710001    30.770000
O      3.070000    14.980000    30.780001
O      4.590000    17.140001    31.010000
O      5.030000    15.390000    29.310001
H      4.910000    14.330001    32.360001
H      4.380000    14.920001    28.760002
O     11.160001    19.770000    32.140003
S     11.350001    20.270002    30.590002
O     11.950001    21.610001    30.540001
O     11.710000    18.950001    30.050001
O      9.800000    20.400002    30.030003
H     11.630001    20.250000    32.840000
H      9.110001    20.240002    30.690002
O     12.160001    14.320001    22.040001
S     13.600000    14.420000    22.850000
O     14.530001    14.390000    21.720001
O     13.470001    15.600000    23.710001
O     13.700001    13.030001    23.720001
H     11.670000    15.140000    22.139999
H     13.940001    13.050001    24.660000
O      8.730000    23.570002    29.300001
S      7.490000    24.310001    30.110001
O      7.020000    23.420000    31.170002
O      8.020000    25.630001    30.460003
O      6.350000    24.360001    28.930000
H      9.550000    23.860001    29.730000
H      5.400000    24.240000    29.130001
O      1.620000    16.440001    25.830002
S      2.730000    16.600000    27.030001
O      2.940000    15.300001    27.680000
O      3.870000    17.370001    26.500000
O      2.000000    17.690001    28.020000
H      1.730000    15.570001    25.400002
H      2.190000    17.470001    28.950003
O     12.850000    19.310001    27.340002
S     13.420000    20.140001    26.040001
O     12.200001    20.600002    25.370003
O     14.490002    21.119999    26.230001
O     13.900002    18.820002    25.190001
H     13.490001    19.460001    28.060001
H     14.860001    18.900002    25.060001
O      4.130000    22.959999    30.260002
S      3.440000    23.700001    31.560001
O      2.010000    24.000000    31.730001
O      4.200000    23.640001    32.810001
O      4.130000    25.140001    31.180000
H      3.570000    22.320002    29.780003
H      3.400000    25.780001    31.280003
O      4.750000    17.200001    22.420002
S      5.800000    16.430000    23.440001
O      6.270000    17.460001    24.380001
O      5.190001    15.180001    23.890001
O      7.120000    16.170002    22.490002
H      3.810000    17.060001    22.600000
H      7.820001    15.790001    23.040001
O      6.410000    16.000000    19.610001
S      6.850000    17.440001    18.950001
O      8.060000    17.940001    19.630001
O      7.000000    17.240002    17.510000
O      5.700001    18.460001    19.530001
H      6.650000    15.700001    20.500002
H      6.090000    19.250000    19.950001
O      9.690001    16.930000    15.720000
S     10.100000    18.320002    16.510000
O     10.360001    18.180000    17.950001
O     11.200000    18.610001    15.590000
O      8.980000    19.410002    16.000000
H      9.500000    16.280001    16.410000
H      8.690001    19.940001    16.770000
O      3.250000    20.100000    20.570002
S      2.570000    20.410002    22.040001
O      2.320000    19.080002    22.610001
O      3.400000    21.360001    22.780001
O      1.030000    20.950001    21.840000
H      4.040000    20.680000    20.559999
H      0.990000    21.850002    22.200001
O      9.610001    14.340000    29.300001
S      8.640000    13.500000    30.330002
O      7.290000    13.550000    29.760000
O      9.520000    12.340001    30.530003
O      8.670000    14.650001    31.510002
H     10.220001    13.730000    28.860001
H      8.680000    14.160000    32.340004
O      5.140000    20.350000    26.070002
S      5.170000    20.770000    27.660000
O      6.470000    21.240002    28.140001
O      3.990000    21.639999    27.600002
O      4.980000    19.290001    28.360003
H      4.250000    20.559999    25.720001
H      5.630000    19.110001    29.060001
O      1.130000    21.630001    26.610001
S      0.970000    20.310001    25.640001
O      0.050000    20.520000    24.520000
O      2.370000    19.930002    25.459999
O      0.170000    19.240002    26.600000
H      2.010000    21.760002    26.990002
H      0.660000    18.490002    26.990002
O     14.910001    22.150002    29.650002
S     16.520000    22.420002    29.440002
O     16.540001    23.730001    30.110001
O     17.220001    21.180000    29.760000
O     16.690001    22.870003    27.870003
H     14.540001    21.260002    29.740002
H     17.600000    23.190001    27.730003
O      7.830000    20.590000    32.240002
S      6.720000    19.450001    31.820002
O      5.510000    19.760000    32.580002
O      6.830000    19.170000    30.380001
O      7.460001    18.170000    32.550003
H      7.430000    21.420002    32.570004
H      6.820001    17.740000    33.139999
O     14.470000    24.480001    19.750002
S     14.430000    23.440001    18.480000
O     15.710001    22.800003    18.180000
O     13.450001    22.410002    18.810001
O     14.380001    24.290001    17.060001
H     14.030001    25.350000    19.650002
H     13.530001    24.090002    16.630001
O      3.130000    23.810001    25.170002
S      4.670000    24.390001    25.090000
O      5.510000    23.520000    25.920000
O      4.890000    24.790001    23.700001
O      4.820000    25.880001    25.770000
H      2.670000    24.220001    24.420002
H      5.540000    25.990002    26.410000
O     11.420001    24.400002    30.360003
S     11.810001    25.820000    29.630001
O     13.090000    25.540001    28.980003
O     10.600000    25.910000    28.800001
O     11.980000    27.080002    30.680000
H     12.200001    23.820002    30.400002
H     12.890000    27.270002    30.960003
O     16.260000    17.750000    27.200001
S     17.760002    18.390001    26.960001
O     18.360001    19.170000    28.040001
O     18.390001    17.240002    26.290001
O     17.320002    19.560001    25.890003
H     16.190001    17.600000    28.160002
H     17.770000    19.380001    25.050001
O      4.530000    28.620003    21.560001
S      4.140000    27.090000    21.080000
O      5.490000    26.590002    21.340000
O      2.970000    26.720001    21.890001
O      3.630000    27.190001    19.520000
H      4.060000    28.760002    22.400000
H      3.870000    26.450003    18.940001
O      9.300001    28.340000    27.090000
S     10.510000    29.200001    26.390001
O     11.040001    30.210001    27.310001
O     11.370001    28.240002    25.680000
O      9.600000    30.240002    25.490000
H      9.380000    27.370003    27.050001
H     10.000000    30.640001    24.700001
O     19.550001    19.260002    18.270000
S     18.200001    20.160000    17.800001
O     18.730001    21.070002    16.740000
O     17.150000    19.170000    17.420002
O     17.880001    20.800001    19.100000
H     20.370003    19.450001    17.720001
O     11.700001    18.090002    23.650000
S     10.490000    16.950001    23.960001
O     10.990001    15.970001    24.960001
O      9.330000    17.800001    24.360001
O     10.380001    16.510000    22.540001
H     12.550001    17.830002    24.100000
O     16.770000    16.940001    22.800003
S     18.280001    17.530001    22.320002
O     18.230001    17.950001    20.889999
O     18.460001    18.680000    23.240002
O     19.200001    16.400002    22.620001
H     16.900002    16.049999    23.240002
O     10.040001    24.560001    21.530001
S     10.650001    24.710003    19.970001
O     10.970000    23.290001    19.680000
O      9.480000    25.150002    19.150002
O     11.820001    25.630001    19.870001
H     10.400001    25.270002    22.139999
O      9.350000    23.930000    26.360001
S      8.750001    25.150002    25.360001
O      8.280001    24.320002    24.209999
O      7.720000    25.870001    26.150000
O      9.960001    25.950001    25.020000
H      9.130000    24.209999    27.299999
O     14.030001    17.210001    30.790003
S     15.040001    18.540001    30.540001
O     16.250002    17.750000    30.170002
O     14.600000    19.350000    29.370001
O     15.110001    19.180000    31.880001
H     14.530001    16.410000    30.450001
O      6.880000    21.910002    22.920000
S      7.180000    21.170002    21.430000
O      5.860000    21.210001    20.750000
O      8.310000    22.030001    20.960003
O      7.690001    19.900002    22.030001
H      5.950000    22.240002    22.810001
O      7.200000    24.670000    20.840000
H      7.420001    24.640003    19.890001
H      7.350000    25.590000    21.110001
H      7.690001    23.970001    21.300001
O     11.240001    16.630001    30.990002
H     11.440001    15.920001    30.350000
H     11.640000    16.530001    31.870001
H     11.470001    17.500002    30.610001
